LAMMPS (10 Sep 2025)
KOKKOS mode with Kokkos version 4.6.2 is enabled
  using double precision
  using view layout = legacy
  will use up to 1 GPU(s) per node
  using 1 OpenMP thread(s) per MPI task
package kokkos
package kokkos newton on neigh half comm device
dimension       3
units           metal
atom_style      atomic
boundary        p p p

# --- Create FCC Cu lattice ---
#lattice         fcc 3.52
#region          box block 0 20 0 20 0 20
#create_box      1 box
#create_atoms    1 box
#mass            1 63.546

read_data       ../../../eos/1.08V/Cu-1.08V.lmp
Reading data file ...
  orthogonal box = (-0.9147072 -0.9147072 -0.9147072) to (71.314707 71.314707 71.314707)
  1 by 1 by 1 MPI processor grid
  reading atoms ...
  32000 atoms
  reading velocities ...
  32000 velocities
  read_data CPU = 0.135 seconds
#change_box     all x scale _scale_ y scale _scale_ z scale _scale_ remap

neighbor        2.0 bin
neigh_modify    delay 0 every 1 check yes

pair_style      eam/alloy
pair_coeff      * * Cu-EAM-Z1622old.eam.alloy Cu

shell           "mkdir -p dumps"

variable	thold equal 300
variable	itemp equal 2*300
variable	runNVE equal 50000
variable	tstep equal 0.0005
variable	ph string 300K-1.08V

timestep        ${tstep}
timestep        0.0005
thermo          200
thermo_style    custom step time temp pe ke pxx pyy pzz press vol density
#thermo_modify	norm yes

dump        	RDUMP all custom 20000 dumps/${ph}-NV-300K-*.xyz id type x y z
dump        	RDUMP all custom 20000 dumps/300K-1.08V-NV-300K-*.xyz id type x y z

#NV  300K calculation
velocity 		all create ${itemp}  23796
velocity 		all create 600  23796

fix 			LANG all langevin ${thold} ${thold} $(300.0*dt) 33948
fix 			LANG all langevin 300 ${thold} $(300.0*dt) 33948
fix 			LANG all langevin 300 300 $(300.0*dt) 33948
fix 			LANG all langevin 300 300 0.14999999999999999445 33948
fix 			NVE all nve
run  			${runNVE}
run  			50000
Neighbor list info ...
  update: every = 1 steps, delay = 0 steps, check = yes
  max neighbors/atom: 2000, page size: 100000
  master list distance cutoff = 7.859375
  ghost atom cutoff = 7.859375
  binsize = 7.859375, bins = 10 10 10
  1 neighbor lists, perpetual/occasional/extra = 1 0 0
  (1) pair eam/alloy/kk, perpetual
      attributes: half, newton on, kokkos_device
      pair build: half/bin/newton/kk/device
      stencil: half/bin/3d
      bin: kk/device
Per MPI rank memory allocation (min/avg/max) = 11.5 | 11.5 | 11.5 Mbytes
   Step          Time           Temp          PotEng         KinEng          Pxx            Pyy            Pzz           Press          Volume        Density    
         0   0              600           -111652.61      2481.7172     -7165.8715     -7207.3905     -7205.8415     -7193.0345      376827.23      8.960805     
       200   0.1            288.2042      -110349.5       1192.0689      1003.173       873.42551      925.96646      934.18832      376827.23      8.960805     
       400   0.2            303.28398     -110414.47      1254.4418      357.58107      298.28949      415.00932      356.95996      376827.23      8.960805     
       600   0.3            296.75552     -110393.32      1227.4388      507.86169      481.08754      500.98892      496.64605      376827.23      8.960805     
       800   0.4            297.56851     -110394.72      1230.8015      536.77454      436.16092      543.64808      505.52785      376827.23      8.960805     
      1000   0.5            298.28193     -110403.19      1233.7523      393.9939       453.08027      431.26372      426.11263      376827.23      8.960805     
      1200   0.6            300.91078     -110401.81      1244.6258      522.57865      401.96973      514.6318       479.72673      376827.23      8.960805     
      1400   0.7            300.62456     -110399.45      1243.4419      559.08417      496.59475      468.83667      508.17186      376827.23      8.960805     
      1600   0.8            299.61375     -110411.93      1239.261       342.30553      480.01935      270.25343      364.19277      376827.23      8.960805     
      1800   0.9            298.01208     -110394.14      1232.6362      515.29538      490.00859      528.87032      511.39143      376827.23      8.960805     
      2000   1              302.35417     -110387.03      1250.5959      730.10621      599.71603      653.75148      661.19124      376827.23      8.960805     
      2200   1.1            299.9361      -110389.59      1240.5943      564.86801      599.09261      620.88123      594.94728      376827.23      8.960805     
      2400   1.2            299.49778     -110397.79      1238.7813      509.64808      561.38409      423.35545      498.1292       376827.23      8.960805     
      2600   1.3            300.46735     -110393.5       1242.7916      505.23646      548.18098      599.21958      550.879        376827.23      8.960805     
      2800   1.4            299.25503     -110401.37      1237.7773      573.48601      362.5295       459.80475      465.27342      376827.23      8.960805     
      3000   1.5            297.3523      -110395.74      1229.9072      611.83906      491.29218      481.94163      528.35762      376827.23      8.960805     
      3200   1.6            301.16403     -110395.23      1245.6733      558.37204      550.79666      519.20719      542.79196      376827.23      8.960805     
      3400   1.7            298.64795     -110393.78      1235.2663      531.22043      595.40543      481.00255      535.87614      376827.23      8.960805     
      3600   1.8            299.43129     -110394.57      1238.5063      585.07417      530.03126      463.6263       526.24391      376827.23      8.960805     
      3800   1.9            298.19003     -110403.5       1233.3722      327.99924      558.03239      363.00115      416.34426      376827.23      8.960805     
      4000   2              298.68543     -110394.1       1235.4213      492.61162      586.1424       466.1096       514.95454      376827.23      8.960805     
      4200   2.1            297.64293     -110392.37      1231.1093      496.63978      565.20313      546.02223      535.95505      376827.23      8.960805     
      4400   2.2            299.92493     -110395.75      1240.5481      485.00704      686.0992       474.78086      548.62903      376827.23      8.960805     
      4600   2.3            298.80063     -110395.87      1235.8978      523.48398      527.87312      443.83755      498.39822      376827.23      8.960805     
      4800   2.4            297.34508     -110395.76      1229.8774      504.43554      461.55045      467.9404       477.97546      376827.23      8.960805     
      5000   2.5            298.75872     -110401.97      1235.7244      462.28673      514.73059      410.35442      462.45725      376827.23      8.960805     
      5200   2.6            300.40108     -110407.11      1242.5175      472.30278      435.64447      426.28749      444.74491      376827.23      8.960805     
      5400   2.7            300.72311     -110412.5       1243.8495      528.92973      249.93869      363.54966      380.80603      376827.23      8.960805     
      5600   2.8            299.59157     -110397.8       1239.1693      498.20513      564.85798      416.0035       493.0222       376827.23      8.960805     
      5800   2.9            298.55221     -110401.28      1234.8703      327.2293       484.47574      518.63147      443.4455       376827.23      8.960805     
      6000   3              298.48274     -110399.84      1234.5829      427.99719      458.16703      509.67478      465.27967      376827.23      8.960805     
      6200   3.1            299.4732      -110395.48      1238.6797      533.82191      559.89256      555.58246      549.76564      376827.23      8.960805     
      6400   3.2            303.11862     -110397.36      1253.7578      542.19833      513.65424      606.49011      554.11422      376827.23      8.960805     
      6600   3.3            300.60405     -110389.77      1243.3571      552.68005      562.52929      615.82757      577.01231      376827.23      8.960805     
      6800   3.4            299.52639     -110397.02      1238.8997      535.93368      428.27687      532.36885      498.8598       376827.23      8.960805     
      7000   3.5            300.01805     -110398.36      1240.9333      531.95603      511.80832      531.51203      525.09213      376827.23      8.960805     
      7200   3.6            299.40958     -110403.5       1238.4165      500.70252      364.83203      434.70316      433.41257      376827.23      8.960805     
      7400   3.7            298.66943     -110398.26      1235.3551      401.05876      478.44437      556.89004      478.79772      376827.23      8.960805     
      7600   3.8            299.65157     -110399.55      1239.4175      401.17006      574.44036      493.54339      489.71794      376827.23      8.960805     
      7800   3.9            298.86944     -110393.23      1236.1824      535.82832      505.7484       551.48054      531.01908      376827.23      8.960805     
      8000   4              299.79228     -110397.95      1239.9994      476.12954      633.34593      430.30286      513.25944      376827.23      8.960805     
      8200   4.1            301.04265     -110391.88      1245.1712      581.44562      530.83815      647.45742      586.58039      376827.23      8.960805     
      8400   4.2            301.30065     -110396.39      1246.2383      445.22993      571.69995      533.71001      516.87996      376827.23      8.960805     
      8600   4.3            300.89027     -110395.19      1244.5409      546.73716      457.35289      541.5612       515.21709      376827.23      8.960805     
      8800   4.4            300.40708     -110388.97      1242.5424      623.45254      576.11671      560.20293      586.59073      376827.23      8.960805     
      9000   4.5            301.59455     -110385.02      1247.454       698.19058      582.75392      628.0102       636.31823      376827.23      8.960805     
      9200   4.6            303.36823     -110394.59      1254.7903      562.9029       601.32313      562.87682      575.70095      376827.23      8.960805     
      9400   4.7            301.40447     -110392.13      1246.6678      588.36356      527.53811      640.56155      585.48774      376827.23      8.960805     
      9600   4.8            300.81594     -110397.07      1244.2335      569.34147      521.09916      471.41181      520.61748      376827.23      8.960805     
      9800   4.9            299.13972     -110401.97      1237.3003      438.48107      366.96622      527.33824      444.26184      376827.23      8.960805     
     10000   5              299.7247      -110396.54      1239.7199      586.40883      443.71586      496.89889      509.00786      376827.23      8.960805     
     10200   5.1            301.32676     -110390.52      1246.3464      498.55349      609.44695      556.38937      554.7966       376827.23      8.960805     
     10400   5.2            301.99507     -110391.78      1249.1106      524.69504      600.15635      581.21493      568.68877      376827.23      8.960805     
     10600   5.3            301.32963     -110399.47      1246.3582      546.9688       456.60254      548.29191      517.28775      376827.23      8.960805     
     10800   5.4            301.83472     -110399.83      1248.4474      581.03247      453.34292      462.98721      499.12086      376827.23      8.960805     
     11000   5.5            301.07482     -110403.74      1245.3043      402.93865      501.16881      470.66156      458.25634      376827.23      8.960805     
     11200   5.6            298.0959      -110391.7       1232.9829      600.49835      514.30377      510.80787      541.87         376827.23      8.960805     
     11400   5.7            296.91976     -110393.73      1228.1181      487.59077      565.80229      506.93925      520.11077      376827.23      8.960805     
     11600   5.8            299.82119     -110394.93      1240.119       437.22953      615.21756      502.58401      518.3437       376827.23      8.960805     
     11800   5.9            300.0808      -110396.82      1241.1928      449.56957      557.2604       539.54083      515.45693      376827.23      8.960805     
     12000   6              299.15123     -110401.43      1237.3479      463.92175      475.49767      503.98285      481.13409      376827.23      8.960805     
     12200   6.1            301.0229      -110405.1       1245.0895      541.57253      377.33686      453.71476      457.54139      376827.23      8.960805     
     12400   6.2            300.02797     -110399.47      1240.9743      488.0045       484.03199      452.92287      474.98645      376827.23      8.960805     
     12600   6.3            299.93795     -110400.5       1240.6019      508.5803       433.44556      522.60058      488.20882      376827.23      8.960805     
     12800   6.4            301.3173      -110398.12      1246.3072      529.78316      433.96831      607.07603      523.60917      376827.23      8.960805     
     13000   6.5            301.13113     -110396.65      1245.5372      531.59727      535.39327      471.67134      512.8873       376827.23      8.960805     
     13200   6.6            299.36872     -110398.69      1238.2475      532.37884      478.75121      500.92871      504.01959      376827.23      8.960805     
     13400   6.7            300.79958     -110400.86      1244.1658      455.31347      487.53692      522.75527      488.53522      376827.23      8.960805     
     13600   6.8            297.51191     -110404.31      1230.5674      360.07511      374.0724       512.02692      415.39148      376827.23      8.960805     
     13800   6.9            296.0271      -110399.85      1224.4259      424.50486      411.8386       548.63243      461.65863      376827.23      8.960805     
     14000   7              301.43262     -110406.64      1246.7842      366.8265       481.77924      508.04745      452.21773      376827.23      8.960805     
     14200   7.1            299.57228     -110397.19      1239.0895      529.68058      555.5504       543.79419      543.00839      376827.23      8.960805     
     14400   7.2            298.72475     -110396.22      1235.5839      471.42521      447.1814       609.2781       509.2949       376827.23      8.960805     
     14600   7.3            298.59126     -110408.33      1235.0318      414.25847      444.3828       393.86807      417.50311      376827.23      8.960805     
     14800   7.4            299.9742      -110402.03      1240.7519      411.92247      452.31387      535.12248      466.45294      376827.23      8.960805     
     15000   7.5            298.76641     -110403.01      1235.7563      445.67363      480.00418      380.75872      435.47884      376827.23      8.960805     
     15200   7.6            299.42688     -110396.72      1238.4881      574.8276       585.68205      408.27248      522.92738      376827.23      8.960805     
     15400   7.7            299.67254     -110389.34      1239.5042      706.71405      469.55506      575.63568      583.96827      376827.23      8.960805     
     15600   7.8            301.36685     -110393.1       1246.5122      573.47481      552.03989      605.04597      576.85356      376827.23      8.960805     
     15800   7.9            300.30145     -110398.96      1242.1055      488.64491      496.27358      496.43814      493.78554      376827.23      8.960805     
     16000   8              301.17902     -110398.84      1245.7353      347.21067      509.67364      593.47329      483.45253      376827.23      8.960805     
     16200   8.1            300.19126     -110398.93      1241.6497      551.76144      454.25621      501.07167      502.36311      376827.23      8.960805     
     16400   8.2            301.2777      -110398.82      1246.1434      605.13566      397.7408       515.65824      506.17823      376827.23      8.960805     
     16600   8.3            300.34831     -110404.58      1242.2993      507.71973      394.98619      425.00009      442.56867      376827.23      8.960805     
     16800   8.4            298.17674     -110389.93      1233.3173      522.57728      667.75976      474.21495      554.85066      376827.23      8.960805     
     17000   8.5            301.24873     -110409.57      1246.0236      437.7142       434.61579      405.19184      425.84061      376827.23      8.960805     
     17200   8.6            298.28754     -110397.45      1233.7755      421.70397      426.85242      589.63725      479.39788      376827.23      8.960805     
     17400   8.7            300.89282     -110402.84      1244.5515      441.44604      458.57202      515.84161      471.95322      376827.23      8.960805     
     17600   8.8            300.78995     -110400.69      1244.126       561.49388      465.4704       402.34242      476.43557      376827.23      8.960805     
     17800   8.9            301.35683     -110390.94      1246.4707      670.71049      566.8872       505.58937      581.06235      376827.23      8.960805     
     18000   9              300.65295     -110402.24      1243.5593      504.71408      553.17593      391.49699      483.129        376827.23      8.960805     
     18200   9.1            297.78296     -110393.55      1231.6885      545.14849      639.28983      413.5238       532.65404      376827.23      8.960805     
     18400   9.2            300.71843     -110404.13      1243.8302      427.84411      467.14246      494.84828      463.27828      376827.23      8.960805     
     18600   9.3            300.40853     -110394.33      1242.5484      606.88881      604.86477      463.11686      558.29015      376827.23      8.960805     
     18800   9.4            299.52186     -110389.43      1238.881       571.56291      623.66224      541.37969      578.86828      376827.23      8.960805     
     19000   9.5            299.71899     -110390.52      1239.6963      482.28333      563.94754      637.18844      561.13977      376827.23      8.960805     
     19200   9.6            302.14295     -110387.18      1249.7223      704.66963      597.82637      597.6075       633.36784      376827.23      8.960805     
     19400   9.7            298.59011     -110391.11      1235.027       548.32909      657.15622      481.49364      562.32632      376827.23      8.960805     
     19600   9.8            298.98216     -110397.08      1236.6486      516.75623      553.36954      468.12223      512.74933      376827.23      8.960805     
     19800   9.9            298.91129     -110397.01      1236.3555      504.99181      582.76364      513.54707      533.76751      376827.23      8.960805     
     20000   10             299.8489      -110394.92      1240.2336      602.3672       525.9037       551.60441      559.95844      376827.23      8.960805     
     20200   10.1           298.2154      -110388.6       1233.4771      733.92916      543.37311      487.0547       588.11899      376827.23      8.960805     
     20400   10.2           299.19385     -110402.01      1237.5242      482.98504      369.40906      525.88645      459.42685      376827.23      8.960805     
     20600   10.3           298.24248     -110390.01      1233.5892      628.8969       503.03279      611.54698      581.15889      376827.23      8.960805     
     20800   10.4           297.29009     -110399         1229.6499      486.04605      462.37854      513.57687      487.33382      376827.23      8.960805     
     21000   10.5           298.11229     -110394.64      1233.0507      493.91443      546.88227      490.2068       510.3345       376827.23      8.960805     
     21200   10.6           298.83354     -110407.72      1236.0339      342.74063      414.58459      436.56094      397.96205      376827.23      8.960805     
     21400   10.7           298.13132     -110396.89      1233.1294      416.30432      488.71077      564.48337      489.83282      376827.23      8.960805     
     21600   10.8           301.31547     -110408.47      1246.2996      420.85519      422.09606      423.65412      422.20179      376827.23      8.960805     
     21800   10.9           300.84425     -110398.37      1244.3506      515.95148      483.80951      541.73641      513.83246      376827.23      8.960805     
     22000   11             300.59973     -110387.92      1243.3392      527.234        638.5241       637.80526      601.18779      376827.23      8.960805     
     22200   11.1           298.62539     -110392.35      1235.173       470.86249      549.48045      583.67888      534.67394      376827.23      8.960805     
     22400   11.2           298.4127      -110398.47      1234.2932      476.90701      535.36594      467.6421       493.30502      376827.23      8.960805     
     22600   11.3           300.06152     -110410.02      1241.1131      498.29664      304.00985      386.90932      396.40527      376827.23      8.960805     
     22800   11.4           298.66239     -110399.34      1235.326       466.18901      499.01667      445.49086      470.23218      376827.23      8.960805     
     23000   11.5           300.08053     -110401.44      1241.1917      377.57014      522.59377      516.78032      472.31474      376827.23      8.960805     
     23200   11.6           299.35984     -110400.75      1238.2108      528.97229      470.85789      383.36314      461.06444      376827.23      8.960805     
     23400   11.7           298.29239     -110405.22      1233.7956      296.09416      526.73832      432.46865      418.43371      376827.23      8.960805     
     23600   11.8           299.87151     -110406.21      1240.3272      486.18585      457.3213       322.02413      421.84376      376827.23      8.960805     
     23800   11.9           298.17026     -110397.27      1233.2905      534.31612      489.32632      447.18209      490.27484      376827.23      8.960805     
     24000   12             298.76738     -110398.19      1235.7602      462.2756       529.50416      502.03698      497.93891      376827.23      8.960805     
     24200   12.1           299.31949     -110393.62      1238.0439      523.84978      534.28773      513.02266      523.72006      376827.23      8.960805     
     24400   12.2           301.16104     -110398.18      1245.6609      496.24704      555.70145      518.42109      523.45653      376827.23      8.960805     
     24600   12.3           299.30637     -110387.02      1237.9896      676.99413      560.60799      603.21686      613.60633      376827.23      8.960805     
     24800   12.4           297.72785     -110403.79      1231.4606      452.00905      416.18446      396.45849      421.55066      376827.23      8.960805     
     25000   12.5           298.35719     -110397.89      1234.0636      576.25317      537.26602      363.21124      492.24348      376827.23      8.960805     
     25200   12.6           298.20605     -110391.99      1233.4385      520.80097      507.1082       552.55231      526.82049      376827.23      8.960805     
     25400   12.7           300.4848      -110401.23      1242.8638      446.45055      516.09455      466.58495      476.37668      376827.23      8.960805     
     25600   12.8           298.99533     -110391.57      1236.7031      519.587        616.1321       546.91313      560.87741      376827.23      8.960805     
     25800   12.9           299.22996     -110396.36      1237.6736      564.21008      432.12901      601.82411      532.72107      376827.23      8.960805     
     26000   13             300.38741     -110398.5       1242.461       571.07869      443.7458       506.95169      507.25873      376827.23      8.960805     
     26200   13.1           300.22467     -110397.58      1241.7879      499.52111      497.36867      499.14971      498.67983      376827.23      8.960805     
     26400   13.2           300.66151     -110388.54      1243.5947      673.77799      559.78233      582.04385      605.20139      376827.23      8.960805     
     26600   13.3           300.16109     -110402.13      1241.5249      554.46292      485.9484       391.74358      477.38497      376827.23      8.960805     
     26800   13.4           298.42371     -110393.08      1234.3388      497.03842      585.26661      500.68387      527.66297      376827.23      8.960805     
     27000   13.5           300.44194     -110390.78      1242.6866      468.9544       692.32988      565.99632      575.7602       376827.23      8.960805     
     27200   13.6           301.30551     -110400.28      1246.2585      591.25914      587.11127      385.23326      521.20122      376827.23      8.960805     
     27400   13.7           298.75172     -110395.02      1235.6955      576.21519      551.11626      508.63808      545.32318      376827.23      8.960805     
     27600   13.8           298.16098     -110394.06      1233.2521      650.86042      496.36674      461.42514      536.21743      376827.23      8.960805     
     27800   13.9           298.555       -110397.19      1234.8818      497.49341      560.10407      436.10046      497.89931      376827.23      8.960805     
     28000   14             297.52178     -110401.87      1230.6082      392.95233      452.55705      453.8758       433.12839      376827.23      8.960805     
     28200   14.1           301.31723     -110397.82      1246.3069      534.00894      569.30841      458.25162      520.52299      376827.23      8.960805     
     28400   14.2           300.57957     -110389.84      1243.2558      606.23469      569.49816      601.70184      592.47823      376827.23      8.960805     
     28600   14.3           302.48327     -110400.94      1251.1299      488.46832      554.84827      457.55022      500.28894      376827.23      8.960805     
     28800   14.4           298.35633     -110400.17      1234.0601      437.27328      460.67702      438.72538      445.55856      376827.23      8.960805     
     29000   14.5           299.46404     -110407.4       1238.6418      398.77302      300.72938      510.02873      403.17705      376827.23      8.960805     
     29200   14.6           299.54705     -110403.96      1238.9851      539.23304      448.71338      374.43752      454.12798      376827.23      8.960805     
     29400   14.7           299.69333     -110396.43      1239.5902      581.91032      473.17664      511.38006      522.15567      376827.23      8.960805     
     29600   14.8           299.4637      -110407.32      1238.6404      477.38591      466.60734      359.65513      434.54946      376827.23      8.960805     
     29800   14.9           300.08092     -110392.41      1241.1933      561.89026      593.20855      521.34118      558.81333      376827.23      8.960805     
     30000   15             300.85784     -110403.06      1244.4068      470.61971      442.13679      479.53411      464.09687      376827.23      8.960805     
     30200   15.1           299.65667     -110397.03      1239.4385      574.84929      492.29406      516.91538      528.01958      376827.23      8.960805     
     30400   15.2           296.14587     -110406.38      1224.9172      405.86951      368.55208      392.19857      388.87339      376827.23      8.960805     
     30600   15.3           298.44008     -110408.57      1234.4065      390.30815      421.92693      382.87988      398.37165      376827.23      8.960805     
     30800   15.4           296.56051     -110406.36      1226.6322      402.49079      504.54235      308.24411      405.09242      376827.23      8.960805     
     31000   15.5           296.80105     -110400.6       1227.6271      404.61609      477.59188      460.70389      447.63728      376827.23      8.960805     
     31200   15.6           298.5667      -110396.54      1234.9302      567.93538      536.29615      421.35238      508.52797      376827.23      8.960805     
     31400   15.7           299.58918     -110396.33      1239.1594      489.92991      580.87913      483.53172      518.11359      376827.23      8.960805     
     31600   15.8           299.91143     -110392.29      1240.4923      502.95495      606.76279      499.92892      536.54889      376827.23      8.960805     
     31800   15.9           299.88257     -110388.45      1240.3729      642.83316      551.42705      556.34367      583.53463      376827.23      8.960805     
     32000   16             301.10068     -110403.15      1245.4112      387.53174      451.66049      555.65171      464.94798      376827.23      8.960805     
     32200   16.1           303.5587      -110396.91      1255.5781      595.55835      566.36132      496.56412      552.82793      376827.23      8.960805     
     32400   16.2           301.57854     -110387.41      1247.3877      588.49495      669.30381      629.64518      629.14798      376827.23      8.960805     
     32600   16.3           299.80643     -110393.37      1240.058       616.08376      498.03993      475.32359      529.81576      376827.23      8.960805     
     32800   16.4           298.67838     -110404.07      1235.3921      406.30974      371.67131      506.55785      428.17963      376827.23      8.960805     
     33000   16.5           298.46224     -110401.18      1234.4982      406.61427      433.75935      501.25239      447.20867      376827.23      8.960805     
     33200   16.6           296.67338     -110395.81      1227.0991      470.11897      490.04255      457.41325      472.52492      376827.23      8.960805     
     33400   16.7           298.71446     -110397.32      1235.5414      415.97203      499.98027      586.12055      500.69095      376827.23      8.960805     
     33600   16.8           297.72663     -110401.11      1231.4555      424.8002       485.18683      450.23263      453.40655      376827.23      8.960805     
     33800   16.9           298.65828     -110397.43      1235.309       501.49091      537.33979      384.4627       474.43114      376827.23      8.960805     
     34000   17             298.38719     -110403.75      1234.1877      375.94466      406.91482      498.94737      427.26895      376827.23      8.960805     
     34200   17.1           299.79788     -110404.3       1240.0226      420.93287      450.8625       453.16931      441.65489      376827.23      8.960805     
     34400   17.2           301.40132     -110400.11      1246.6547      489.7594       546.57295      535.06395      523.79876      376827.23      8.960805     
     34600   17.3           299.4455      -110399.94      1238.5651      438.6534       528.90002      545.25811      504.27051      376827.23      8.960805     
     34800   17.4           298.83133     -110396.4       1236.0248      443.92446      550.14602      567.59835      520.55628      376827.23      8.960805     
     35000   17.5           300.96857     -110403.76      1244.8648      393.67638      558.27325      458.41854      470.12272      376827.23      8.960805     
     35200   17.6           300.80261     -110396.27      1244.1784      547.23502      508.04426      521.00565      525.42831      376827.23      8.960805     
     35400   17.7           299.36127     -110387.19      1238.2167      570.33149      597.01847      601.20657      589.51884      376827.23      8.960805     
     35600   17.8           301.04299     -110396.02      1245.1726      480.83803      601.0928       526.95141      536.29408      376827.23      8.960805     
     35800   17.9           299.48642     -110393.05      1238.7343      536.27257      608.91868      482.19386      542.4617       376827.23      8.960805     
     36000   18             299.06149     -110401.05      1236.9768      514.91033      422.0813       435.73299      457.57487      376827.23      8.960805     
     36200   18.1           298.57401     -110399.63      1234.9604      373.93474      586.4195       378.54204      446.29876      376827.23      8.960805     
     36400   18.2           301.0676      -110398.37      1245.2744      469.98827      521.5225       554.88469      515.46515      376827.23      8.960805     
     36600   18.3           299.77973     -110398.42      1239.9475      490.97924      520.02418      438.49839      483.16727      376827.23      8.960805     
     36800   18.4           299.54216     -110397.17      1238.9649      450.66435      579.97837      495.6814       508.77471      376827.23      8.960805     
     37000   18.5           300.98716     -110394.17      1244.9417      584.37198      618.85483      499.02382      567.41688      376827.23      8.960805     
     37200   18.6           301.61304     -110394.32      1247.5304      539.24587      564.70029      579.19773      561.04796      376827.23      8.960805     
     37400   18.7           300.71329     -110391.03      1243.8089      617.48178      494.40521      590.61133      567.49944      376827.23      8.960805     
     37600   18.8           300.7815      -110397.56      1244.091       559.64818      472.39991      513.9667       515.33826      376827.23      8.960805     
     37800   18.9           299.90174     -110386.62      1240.4522      641.32244      588.29533      581.69226      603.77001      376827.23      8.960805     
     38000   19             299.21122     -110400.23      1237.5961      506.18128      420.51618      540.65787      489.11844      376827.23      8.960805     
     38200   19.1           299.19549     -110403.25      1237.531       432.48996      430.2758       519.59748      460.78775      376827.23      8.960805     
     38400   19.2           298.9542      -110399.83      1236.533       414.7455       526.65447      490.90634      477.43544      376827.23      8.960805     
     38600   19.3           299.88054     -110404.4       1240.3645      403.06219      397.20019      519.77055      440.01098      376827.23      8.960805     
     38800   19.4           298.98284     -110394.55      1236.6514      529.76873      449.52686      640.6788       539.99146      376827.23      8.960805     
     39000   19.5           297.73523     -110395.67      1231.4911      482.09494      606.66194      457.12671      515.29453      376827.23      8.960805     
     39200   19.6           298.27878     -110394.25      1233.7393      583.06811      520.98028      451.63163      518.56         376827.23      8.960805     
     39400   19.7           298.03939     -110385.95      1232.7492      727.95257      506.92894      517.22497      584.03549      376827.23      8.960805     
     39600   19.8           298.08351     -110397.88      1232.9316      425.61729      575.27875      472.48992      491.12865      376827.23      8.960805     
     39800   19.9           299.64916     -110396.33      1239.4075      403.19314      621.3037       476.75371      500.41685      376827.23      8.960805     
     40000   20             297.6745      -110394.2       1231.2399      495.46104      688.54379      395.65338      526.55274      376827.23      8.960805     
     40200   20.1           299.93196     -110403.89      1240.5772      394.42634      617.72177      375.82293      462.65702      376827.23      8.960805     
     40400   20.2           297.63974     -110400.69      1231.0961      534.03438      425.80041      441.53507      467.12328      376827.23      8.960805     
     40600   20.3           297.1189      -110395.63      1228.9418      545.44704      472.50102      516.86631      511.60479      376827.23      8.960805     
     40800   20.4           298.75231     -110400.02      1235.6979      378.47208      535.90901      516.04724      476.80945      376827.23      8.960805     
     41000   20.5           299.64077     -110401.19      1239.3728      425.62133      522.01247      435.58522      461.07301      376827.23      8.960805     
     41200   20.6           300.92302     -110392.38      1244.6764      577.33472      600.39128      577.51826      585.08142      376827.23      8.960805     
     41400   20.7           302.20858     -110396.83      1249.9937      549.98734      599.0424       549.97242      566.33405      376827.23      8.960805     
     41600   20.8           301.74276     -110403.83      1248.067       507.2891       469.63501      499.53548      492.1532       376827.23      8.960805     
     41800   20.9           301.04438     -110398.07      1245.1784      559.58364      552.24679      482.3496       531.39335      376827.23      8.960805     
     42000   21             300.62719     -110387.41      1243.4528      685.85659      653.21117      556.94689      632.00488      376827.23      8.960805     
     42200   21.1           301.3177      -110387.74      1246.3089      601.23986      640.03783      625.0483       622.10867      376827.23      8.960805     
     42400   21.2           301.02317     -110395.37      1245.0907      527.74183      538.77521      527.51918      531.34541      376827.23      8.960805     
     42600   21.3           300.25221     -110389.58      1241.9018      585.41492      676.90806      508.91608      590.41302      376827.23      8.960805     
     42800   21.4           299.84684     -110394.26      1240.2251      564.62847      538.53554      506.89991      536.68797      376827.23      8.960805     
     43000   21.5           302.49295     -110395.06      1251.1699      522.83792      593.7211       545.79899      554.11934      376827.23      8.960805     
     43200   21.6           300.18254     -110396.42      1241.6136      387.08252      584.57246      594.78302      522.146        376827.23      8.960805     
     43400   21.7           302.14134     -110404.24      1249.7156      492.48017      518.77129      462.22344      491.1583       376827.23      8.960805     
     43600   21.8           301.06941     -110393.41      1245.2819      437.16337      637.6698       596.91014      557.24777      376827.23      8.960805     
     43800   21.9           301.80147     -110381.32      1248.3098      624.12522      595.22299      761.06198      660.13673      376827.23      8.960805     
     44000   22             301.27678     -110390.51      1246.1396      559.3271       626.13987      527.97188      571.14629      376827.23      8.960805     
     44200   22.1           299.20786     -110388.07      1237.5822      560.73235      593.02351      576.84471      576.86686      376827.23      8.960805     
     44400   22.2           299.93915     -110409.08      1240.6069      315.94962      417.89263      456.3469       396.72972      376827.23      8.960805     
     44600   22.3           296.44685     -110384.36      1226.1621      599.66257      575.91997      616.6791       597.42055      376827.23      8.960805     
     44800   22.4           298.06963     -110385.36      1232.8742      592.46745      657.35557      617.03467      622.28589      376827.23      8.960805     
     45000   22.5           300.08465     -110389.93      1241.2087      613.85701      576.49892      555.82354      582.05982      376827.23      8.960805     
     45200   22.6           300.78463     -110401.64      1244.104       523.60895      492.89335      436.83849      484.44693      376827.23      8.960805     
     45400   22.7           297.5595      -110396.96      1230.7642      546.16684      428.32431      508.86546      494.4522       376827.23      8.960805     
     45600   22.8           296.62157     -110390.64      1226.8848      618.36938      458.30801      473.71632      516.7979       376827.23      8.960805     
     45800   22.9           299.98233     -110401.91      1240.7855      546.65261      442.29183      446.34337      478.42927      376827.23      8.960805     
     46000   23             300.56172     -110406.69      1243.182       386.74641      459.8724       411.34881      419.32254      376827.23      8.960805     
     46200   23.1           298.48809     -110400.04      1234.6051      457.10684      575.93321      368.57991      467.20665      376827.23      8.960805     
     46400   23.2           300.11249     -110406.54      1241.3239      491.337        397.81393      446.36825      445.17306      376827.23      8.960805     
     46600   23.3           299.19134     -110395.94      1237.5139      498.99376      585.66426      490.98415      525.21406      376827.23      8.960805     
     46800   23.4           299.76449     -110403.23      1239.8845      526.41867      419.28855      397.26538      447.65754      376827.23      8.960805     
     47000   23.5           299.78332     -110395.71      1239.9624      552.86944      527.6153       536.671        539.05191      376827.23      8.960805     
     47200   23.6           300.03509     -110394.92      1241.0037      582.10949      538.7894       468.45535      529.78475      376827.23      8.960805     
     47400   23.7           299.93891     -110393.07      1240.6059      549.24623      506.2594       592.80564      549.43709      376827.23      8.960805     
     47600   23.8           300.47624     -110395.66      1242.8285      525.67964      509.99643      568.76832      534.8148       376827.23      8.960805     
     47800   23.9           300.95336     -110390.34      1244.8019      604.50677      608.33921      547.87633      586.90744      376827.23      8.960805     
     48000   24             297.86203     -110395.25      1232.0156      517.56442      504.45031      485.38195      502.46556      376827.23      8.960805     
     48200   24.1           300.42968     -110398.43      1242.6359      497.87522      497.9655       543.75878      513.19983      376827.23      8.960805     
     48400   24.2           298.85266     -110398.06      1236.113       540.31482      496.92564      417.79437      485.01161      376827.23      8.960805     
     48600   24.3           301.01418     -110399.88      1245.0535      548.9396       529.94221      389.9273       489.60304      376827.23      8.960805     
     48800   24.4           302.0856      -110401.67      1249.4851      566.55182      515.82689      375.20915      485.86262      376827.23      8.960805     
     49000   24.5           299.07022     -110395.01      1237.0129      532.62016      550.84263      543.56782      542.34354      376827.23      8.960805     
     49200   24.6           300.96439     -110393.99      1244.8475      619.36634      491.44114      559.14799      556.65183      376827.23      8.960805     
     49400   24.7           302.66799     -110392.81      1251.894       566.50175      576.52868      699.32337      614.11793      376827.23      8.960805     
     49600   24.8           302.02241     -110393.3       1249.2237      630.05018      525.2908       528.12014      561.1537       376827.23      8.960805     
     49800   24.9           299.89278     -110391.06      1240.4151      517.49125      599.5181       626.58162      581.19699      376827.23      8.960805     
     50000   25             299.75009     -110397.01      1239.8249      569.52982      446.22365      552.99998      522.91782      376827.23      8.960805     
Loop time of 41.9127 on 1 procs for 50000 steps with 32000 atoms

Performance: 51.536 ns/day, 0.466 hours/ns, 1192.956 timesteps/s, 38.175 Matom-step/s
99.7% CPU use with 1 MPI tasks x 1 OpenMP threads

MPI task timing breakdown:
Section |  min time  |  avg time  |  max time  |%varavg| %total
---------------------------------------------------------------
Pair    | 26.718     | 26.718     | 26.718     |   0.0 | 63.75
Neigh   | 0          | 0          | 0          |   0.0 |  0.00
Comm    | 11.093     | 11.093     | 11.093     |   0.0 | 26.47
Output  | 0.12002    | 0.12002    | 0.12002    |   0.0 |  0.29
Modify  | 2.0104     | 2.0104     | 2.0104     |   0.0 |  4.80
Other   |            | 1.972      |            |       |  4.70

Nlocal:          32000 ave       32000 max       32000 min
Histogram: 1 0 0 0 0 0 0 0 0 0
Nghost:          26825 ave       26825 max       26825 min
Histogram: 1 0 0 0 0 0 0 0 0 0
Neighs:      2.816e+06 ave   2.816e+06 max   2.816e+06 min
Histogram: 1 0 0 0 0 0 0 0 0 0

Total # of neighbors = 2816000
Ave neighs/atom = 88
Neighbor list builds = 0
Dangerous builds = 0
Total wall time: 0:00:44
