LAMMPS (10 Sep 2025)
KOKKOS mode with Kokkos version 4.6.2 is enabled
  using double precision
  using view layout = legacy
  will use up to 1 GPU(s) per node
  using 1 OpenMP thread(s) per MPI task
package kokkos
package kokkos newton on neigh half comm device
dimension       3
units           metal
atom_style      atomic
boundary        p p p

# --- Create FCC Cu lattice ---
#lattice         fcc 3.52
#region          box block 0 20 0 20 0 20
#create_box      1 box
#create_atoms    1 box
#mass            1 63.546

read_data       ../../../eos/1.10V/Cu-1.10V.lmp
Reading data file ...
  orthogonal box = (-1.136256 -1.136256 -1.136256) to (71.536256 71.536256 71.536256)
  1 by 1 by 1 MPI processor grid
  reading atoms ...
  32000 atoms
  reading velocities ...
  32000 velocities
  read_data CPU = 0.131 seconds
#change_box     all x scale _scale_ y scale _scale_ z scale _scale_ remap

neighbor        2.0 bin
neigh_modify    delay 0 every 1 check yes

pair_style      eam/alloy
pair_coeff      * * Cu-EAM-Z1622old.eam.alloy Cu

shell           "mkdir -p dumps"

variable	thold equal 300
variable	itemp equal 2*300
variable	runNVE equal 50000
variable	tstep equal 0.0005
variable	ph string 300K-1.10V

timestep        ${tstep}
timestep        0.0005
thermo          200
thermo_style    custom step time temp pe ke pxx pyy pzz press vol density
#thermo_modify	norm yes

dump        	RDUMP all custom 20000 dumps/${ph}-NV-300K-*.xyz id type x y z
dump        	RDUMP all custom 20000 dumps/300K-1.10V-NV-300K-*.xyz id type x y z

#NV  300K calculation
velocity 		all create ${itemp}  23796
velocity 		all create 600  23796

fix 			LANG all langevin ${thold} ${thold} $(300.0*dt) 33948
fix 			LANG all langevin 300 ${thold} $(300.0*dt) 33948
fix 			LANG all langevin 300 300 $(300.0*dt) 33948
fix 			LANG all langevin 300 300 0.14999999999999999445 33948
fix 			NVE all nve
run  			${runNVE}
run  			50000
Neighbor list info ...
  update: every = 1 steps, delay = 0 steps, check = yes
  max neighbors/atom: 2000, page size: 100000
  master list distance cutoff = 7.859375
  ghost atom cutoff = 7.859375
  binsize = 7.859375, bins = 10 10 10
  1 neighbor lists, perpetual/occasional/extra = 1 0 0
  (1) pair eam/alloy/kk, perpetual
      attributes: half, newton on, kokkos_device
      pair build: half/bin/newton/kk/device
      stencil: half/bin/3d
      bin: kk/device
Per MPI rank memory allocation (min/avg/max) = 11.5 | 11.5 | 11.5 Mbytes
   Step          Time           Temp          PotEng         KinEng          Pxx            Pyy            Pzz           Press          Volume        Density    
         0   0              600           -111539.48      2481.7172     -30265.761     -30306.525     -30305.005     -30292.43       383804.9       8.7978953    
       200   0.1            289.77722     -110243.56      1198.5752     -21519.801     -21650.269     -21600.724     -21590.264      383804.9       8.7978953    
       400   0.2            299.22202     -110281.65      1237.6407     -21890.462     -21947.036     -21838.915     -21892.138      383804.9       8.7978953    
       600   0.3            298.66832     -110287.27      1235.3505     -21961.163     -21976.644     -21983.902     -21973.903      383804.9       8.7978953    
       800   0.4            297.39934     -110278.48      1230.1018     -21872.619     -21930.91      -21850.082     -21884.537      383804.9       8.7978953    
      1000   0.5            298.68967     -110290.47      1235.4388     -22015.933     -21969.76      -21993.476     -21993.056      383804.9       8.7978953    
      1200   0.6            301.32784     -110286.55      1246.3508     -21878.494     -21982.455     -21874.677     -21911.875      383804.9       8.7978953    
      1400   0.7            300.84773     -110283.45      1244.365      -21843.033     -21888.277     -21899.007     -21876.772      383804.9       8.7978953    
      1600   0.8            299.66361     -110293.39      1239.4672     -22016.422     -21904.759     -22085.098     -22002.093      383804.9       8.7978953    
      1800   0.9            297.60913     -110277.75      1230.9695     -21872.136     -21899.764     -21844.96      -21872.287      383804.9       8.7978953    
      2000   1              302.78303     -110273.94      1252.3698     -21702.52      -21812.734     -21737.797     -21751.017      383804.9       8.7978953    
      2200   1.1            299.51741     -110272.46      1238.8625     -21810.179     -21801.186     -21748.704     -21786.69       383804.9       8.7978953    
      2400   1.2            299.1944      -110283.44      1237.5265     -21889.669     -21849.541     -21991.114     -21910.108      383804.9       8.7978953    
      2600   1.3            300.56941     -110281.94      1243.2138     -21930.84      -21877.183     -21820.588     -21876.204      383804.9       8.7978953    
      2800   1.4            298.8168      -110287.87      1235.9647     -21861.314     -22059.37      -21939.122     -21953.269      383804.9       8.7978953    
      3000   1.5            298.11378     -110283.92      1233.0568     -21828.385     -21905.906     -21942.713     -21892.335      383804.9       8.7978953    
      3200   1.6            300.5435      -110278.54      1243.1066     -21839.275     -21833.101     -21874.349     -21848.908      383804.9       8.7978953    
      3400   1.7            299.05637     -110280.69      1236.9556     -21862.368     -21823.017     -21938.208     -21874.531      383804.9       8.7978953    
      3600   1.8            300.12876     -110282.5       1241.3912     -21829.406     -21884.754     -21961.872     -21892.011      383804.9       8.7978953    
      3800   1.9            298.42595     -110286.66      1234.348      -22040.561     -21836.155     -22013.027     -21963.248      383804.9       8.7978953    
      4000   2              298.71309     -110280.38      1235.5357     -21902.119     -21839.181     -21935.013     -21892.104      383804.9       8.7978953    
      4200   2.1            297.17535     -110278.69      1229.1753     -21904.008     -21837.044     -21884.379     -21875.143      383804.9       8.7978953    
      4400   2.2            299.71938     -110280.06      1239.6979     -21909.592     -21687.375     -21931.429     -21842.799      383804.9       8.7978953    
      4600   2.3            298.86148     -110280.45      1236.1495     -21880.775     -21844.941     -21966.431     -21897.382      383804.9       8.7978953    
      4800   2.4            297.29739     -110279.54      1229.6801     -21918.272     -21913.107     -21870.984     -21900.788      383804.9       8.7978953    
      5000   2.5            298.49479     -110286.02      1234.6328     -21931.738     -21858.448     -21990.736     -21926.974      383804.9       8.7978953    
      5200   2.6            300.29409     -110291.37      1242.075      -21897.42      -21942.877     -21972.929     -21937.742      383804.9       8.7978953    
      5400   2.7            299.82674     -110293.67      1240.142      -21844.509     -22110.133     -21993.33      -21982.657      383804.9       8.7978953    
      5600   2.8            299.63716     -110286.12      1239.3578     -21938.454     -21850.971     -22019.673     -21936.366      383804.9       8.7978953    
      5800   2.9            298.5328      -110288.38      1234.79       -22092.235     -21948.964     -21882.532     -21974.577      383804.9       8.7978953    
      6000   3              298.90706     -110287.23      1236.338      -21992.929     -21946.228     -21926.392     -21955.183      383804.9       8.7978953    
      6200   3.1            299.28444     -110281.98      1237.8989     -21908.249     -21835.611     -21835.903     -21859.921      383804.9       8.7978953    
      6400   3.2            303.21931     -110282.97      1254.1743     -21850.752     -21898.545     -21774.438     -21841.245      383804.9       8.7978953    
      6600   3.3            300.67084     -110276         1243.6333     -21837.034     -21862.785     -21793.046     -21830.955      383804.9       8.7978953    
      6800   3.4            299.94187     -110281.79      1240.6182     -21867.566     -21989.179     -21832.659     -21896.468      383804.9       8.7978953    
      7000   3.5            299.53711     -110282.54      1238.944      -21851.195     -21870.686     -21866.668     -21862.85       383804.9       8.7978953    
      7200   3.6            299.34254     -110288.01      1238.1392     -21892.167     -22030.175     -21957.771     -21960.038      383804.9       8.7978953    
      7400   3.7            299.39369     -110285.71      1238.3508     -22001.423     -21924.516     -21874.588     -21933.509      383804.9       8.7978953    
      7600   3.8            299.32144     -110283.26      1238.0519     -21968.139     -21815.222     -21901.785     -21895.049      383804.9       8.7978953    
      7800   3.9            299.03306     -110276.61      1236.8591     -21859.382     -21852.463     -21823.851     -21845.232      383804.9       8.7978953    
      8000   4              299.67185     -110284.22      1239.5013     -21945.984     -21775.284     -21960.216     -21893.828      383804.9       8.7978953    
      8200   4.1            301.60436     -110276.55      1247.4946     -21815.962     -21830.604     -21756.003     -21800.856      383804.9       8.7978953    
      8400   4.2            301.81221     -110282.73      1248.3543     -21955.323     -21829.068     -21870.637     -21885.009      383804.9       8.7978953    
      8600   4.3            301.28441     -110282.71      1246.1712     -21869.2       -21952.61      -21880.691     -21900.834      383804.9       8.7978953    
      8800   4.4            300.71608     -110275.15      1243.8205     -21782.227     -21813.209     -21862.713     -21819.383      383804.9       8.7978953    
      9000   4.5            301.24496     -110269.57      1246.008      -21708.417     -21804.679     -21747.029     -21753.375      383804.9       8.7978953    
      9200   4.6            303.64824     -110281.18      1255.9484     -21831.906     -21808.137     -21856.713     -21832.252      383804.9       8.7978953    
      9400   4.7            300.75241     -110277.1       1243.9707     -21801.659     -21880.247     -21767.665     -21816.524      383804.9       8.7978953    
      9600   4.8            301.32118     -110285.82      1246.3233     -21875.834     -21873.497     -21987.066     -21912.132      383804.9       8.7978953    
      9800   4.9            299.51641     -110286.75      1238.8584     -21942.186     -22024.017     -21857.243     -21941.149      383804.9       8.7978953    
     10000   5              300.087       -110281.32      1241.2185     -21809.357     -21953.354     -21888.854     -21883.855      383804.9       8.7978953    
     10200   5.1            301.98003     -110279.03      1249.0484     -21945.861     -21807.137     -21847.235     -21866.744      383804.9       8.7978953    
     10400   5.2            302.13037     -110275.83      1249.6702     -21865.164     -21795.168     -21788.112     -21816.148      383804.9       8.7978953    
     10600   5.3            301.05735     -110283.05      1245.232      -21847.168     -21947.103     -21831.879     -21875.383      383804.9       8.7978953    
     10800   5.4            301.42149     -110283.85      1246.7382     -21823.545     -21956.369     -21928.972     -21902.962      383804.9       8.7978953    
     11000   5.5            301.40794     -110289.96      1246.6821     -21994.089     -21932.247     -21930.045     -21952.127      383804.9       8.7978953    
     11200   5.6            298.21606     -110276.81      1233.4799     -21810.977     -21866.394     -21872.076     -21849.816      383804.9       8.7978953    
     11400   5.7            297.17982     -110277.96      1229.1938     -21901.593     -21805.259     -21891.051     -21865.968      383804.9       8.7978953    
     11600   5.8            299.08788     -110277.09      1237.0859     -21952.776     -21772.951     -21867.298     -21864.341      383804.9       8.7978953    
     11800   5.9            300.59351     -110284.26      1243.3135     -21958.356     -21885.765     -21855.144     -21899.755      383804.9       8.7978953    
     12000   6              299.17654     -110285.3       1237.4526     -21915.29      -21913.255     -21894.448     -21907.664      383804.9       8.7978953    
     12200   6.1            300.17871     -110287.19      1241.5978     -21823.382     -22002.306     -21922.848     -21916.179      383804.9       8.7978953    
     12400   6.2            300.19478     -110284.89      1241.6643     -21903.456     -21914.618     -21951.597     -21923.224      383804.9       8.7978953    
     12600   6.3            300.27056     -110287.24      1241.9777     -21890.313     -21979.908     -21903.986     -21924.736      383804.9       8.7978953    
     12800   6.4            301.15125     -110283.25      1245.6204     -21879.594     -21959.94      -21777.306     -21872.28       383804.9       8.7978953    
     13000   6.5            301.39992     -110283.71      1246.6489     -21903.4       -21862.418     -21946.762     -21904.193      383804.9       8.7978953    
     13200   6.6            299.69673     -110283.41      1239.6042     -21837.008     -21913.439     -21905.866     -21885.437      383804.9       8.7978953    
     13400   6.7            300.91481     -110285.36      1244.6424     -21927.487     -21921.963     -21858.766     -21902.739      383804.9       8.7978953    
     13600   6.8            297.603       -110289.86      1230.9442     -22034.39      -22036.743     -21917.182     -21996.105      383804.9       8.7978953    
     13800   6.9            296.27029     -110285.68      1225.4318     -21973.054     -22006.926     -21853.25      -21944.41       383804.9       8.7978953    
     14000   7              301.39866     -110291.75      1246.6437     -22028.078     -21927.758     -21894.434     -21950.09       383804.9       8.7978953    
     14200   7.1            300.08773     -110282.43      1241.2215     -21877.325     -21839.282     -21818.49      -21845.032      383804.9       8.7978953    
     14400   7.2            298.92985     -110281.23      1236.4323     -21902.408     -21955.362     -21778.41      -21878.727      383804.9       8.7978953    
     14600   7.3            299.79715     -110294.71      1240.0196     -21991.791     -21969.028     -21982.754     -21981.191      383804.9       8.7978953    
     14800   7.4            299.06165     -110285.18      1236.9774     -21957.476     -21943.315     -21864.905     -21921.899      383804.9       8.7978953    
     15000   7.5            298.81067     -110290.8       1235.9393     -21957.498     -21938.38      -22041.542     -21979.14       383804.9       8.7978953    
     15200   7.6            298.86905     -110284.04      1236.1808     -21824.549     -21865.387     -22016.316     -21902.084      383804.9       8.7978953    
     15400   7.7            299.79615     -110277.59      1240.0155     -21711.836     -21953.764     -21868.601     -21844.734      383804.9       8.7978953    
     15600   7.8            301.28034     -110280.35      1246.1543     -21873.073     -21835.353     -21828.477     -21845.634      383804.9       8.7978953    
     15800   7.9            299.33451     -110280.91      1238.106      -21889.35      -21891.688     -21885.799     -21888.946      383804.9       8.7978953    
     16000   8              301.53141     -110284.23      1247.1928     -22068.124     -21922.061     -21765.478     -21918.554      383804.9       8.7978953    
     16200   8.1            299.76928     -110282.18      1239.9043     -21849.834     -21918.414     -21882.069     -21883.439      383804.9       8.7978953    
     16400   8.2            301.36878     -110281.91      1246.5201     -21765.329     -21987.409     -21878.408     -21877.049      383804.9       8.7978953    
     16600   8.3            300.32536     -110288.38      1242.2044     -21867.445     -22010.525     -21957.636     -21945.202      383804.9       8.7978953    
     16800   8.4            299.16077     -110275.88      1237.3874     -21879.142     -21727.661     -21893.389     -21833.397      383804.9       8.7978953    
     17000   8.5            301.62253     -110293.1       1247.5697     -21941.112     -21961.027     -21965.325     -21955.822      383804.9       8.7978953    
     17200   8.6            299.04261     -110281.31      1236.8987     -21935.551     -21963.45      -21778.625     -21892.542      383804.9       8.7978953    
     17400   8.7            300.74859     -110285.64      1243.9549     -21934.19      -21926.831     -21863.552     -21908.191      383804.9       8.7978953    
     17600   8.8            300.91434     -110284.01      1244.6405     -21829.109     -21910.896     -21993.722     -21911.242      383804.9       8.7978953    
     17800   8.9            301.4827      -110273.29      1246.9914     -21686.356     -21775.73      -21880.429     -21780.838      383804.9       8.7978953    
     18000   9              300.86867     -110288.2       1244.4516     -21886.869     -21849.891     -22042.871     -21926.544      383804.9       8.7978953    
     18200   9.1            297.95075     -110279.32      1232.3825     -21835.77      -21763         -21991.528     -21863.433      383804.9       8.7978953    
     18400   9.2            300.26068     -110288.6       1241.9368     -21956.164     -21946.846     -21887.47      -21930.16       383804.9       8.7978953    
     18600   9.3            300.97031     -110282.96      1244.872      -21828.322     -21805.679     -21965.74      -21866.58       383804.9       8.7978953    
     18800   9.4            299.82743     -110275.73      1240.1448     -21827.54      -21808.504     -21848.491     -21828.178      383804.9       8.7978953    
     19000   9.5            299.82656     -110274.09      1240.1412     -21937.506     -21799.508     -21724.46      -21820.491      383804.9       8.7978953    
     19200   9.6            302.53828     -110271.28      1251.3574     -21662.665     -21789.913     -21777.361     -21743.313      383804.9       8.7978953    
     19400   9.7            299.13254     -110274.84      1237.2706     -21840.426     -21692.777     -21903.769     -21812.324      383804.9       8.7978953    
     19600   9.8            299.41811     -110280.78      1238.4518     -21855.89      -21808.357     -21919.094     -21861.114      383804.9       8.7978953    
     19800   9.9            298.76717     -110280.56      1235.7594     -21874.119     -21786.034     -21870.382     -21843.512      383804.9       8.7978953    
     20000   10             300.26336     -110283.18      1241.9479     -21797.859     -21907.556     -21883.499     -21862.971      383804.9       8.7978953    
     20200   10.1           297.90749     -110272.89      1232.2036     -21662.15      -21835.312     -21904.456     -21800.639      383804.9       8.7978953    
     20400   10.2           299.59317     -110289.9       1239.1759     -21943.799     -22038.485     -21904.356     -21962.213      383804.9       8.7978953    
     20600   10.3           298.52841     -110276.51      1234.7718     -21781.806     -21905.621     -21784.478     -21823.968      383804.9       8.7978953    
     20800   10.4           298.07908     -110288.44      1232.9133     -21950.04      -21989.109     -21932.014     -21957.055      383804.9       8.7978953    
     21000   10.5           297.82676     -110277.26      1231.8697     -21885.528     -21814.092     -21874.574     -21858.065      383804.9       8.7978953    
     21200   10.6           299.68856     -110295.39      1239.5704     -22036.999     -22022.316     -21981.858     -22013.724      383804.9       8.7978953    
     21400   10.7           298.2907      -110282.99      1233.7886     -21991.701     -21918.808     -21831.378     -21913.962      383804.9       8.7978953    
     21600   10.8           300.96528     -110293.05      1244.8512     -21986.36      -21950.81      -22000.659     -21979.277      383804.9       8.7978953    
     21800   10.9           300.27891     -110282.91      1242.0122     -21900.921     -21907.109     -21861.2       -21889.744      383804.9       8.7978953    
     22000   11             300.74156     -110273.85      1243.9258     -21881.648     -21772.322     -21761.528     -21805.166      383804.9       8.7978953    
     22200   11.1           298.90783     -110275.65      1236.3412     -21904.259     -21821.328     -21793.828     -21839.805      383804.9       8.7978953    
     22400   11.2           299.2594      -110283.4       1237.7953     -21910.015     -21849.519     -21917.891     -21892.475      383804.9       8.7978953    
     22600   11.3           300.67911     -110294.78      1243.6675     -21904.331     -22109.06      -22011.23      -22008.207      383804.9       8.7978953    
     22800   11.4           298.77773     -110283.63      1235.8031     -21926.561     -21913.977     -21929.239     -21923.259      383804.9       8.7978953    
     23000   11.5           300.19587     -110284.65      1241.6688     -21991.536     -21874.285     -21856.192     -21907.338      383804.9       8.7978953    
     23200   11.6           299.49027     -110285.41      1238.7503     -21880.444     -21919.421     -22003.449     -21934.438      383804.9       8.7978953    
     23400   11.7           298.50033     -110289.86      1234.6557     -22107.269     -21855.764     -21953.842     -21972.292      383804.9       8.7978953    
     23600   11.8           300.14929     -110292.45      1241.4761     -21961.294     -21931.493     -22063.905     -21985.564      383804.9       8.7978953    
     23800   11.9           298.28546     -110279.99      1233.7669     -21847.662     -21878.697     -21925.744     -21884.034      383804.9       8.7978953    
     24000   12             299.09944     -110282.98      1237.1337     -21949.463     -21841.734     -21900.11      -21897.102      383804.9       8.7978953    
     24200   12.1           299.52252     -110280.59      1238.8836     -21893.385     -21861.091     -21894.262     -21882.913      383804.9       8.7978953    
     24400   12.2           301.23905     -110282.76      1245.9835     -21905.233     -21845.105     -21857.334     -21869.224      383804.9       8.7978953    
     24600   12.3           300.08337     -110272.42      1241.2034     -21704.084     -21825.074     -21770.44      -21766.533      383804.9       8.7978953    
     24800   12.4           298.14645     -110287.38      1233.192      -21950.792     -21954.972     -21983.557     -21963.107      383804.9       8.7978953    
     25000   12.5           298.8036      -110281.78      1235.9101     -21788.502     -21844.136     -22012.274     -21881.637      383804.9       8.7978953    
     25200   12.6           299.05896     -110279.06      1236.9663     -21865.944     -21902.4       -21865.175     -21877.84       383804.9       8.7978953    
     25400   12.7           300.18398     -110282.35      1241.6196     -21913.729     -21862.045     -21909.436     -21895.07       383804.9       8.7978953    
     25600   12.8           299.19918     -110276.54      1237.5463     -21864.539     -21787.471     -21821.688     -21824.566      383804.9       8.7978953    
     25800   12.9           299.69742     -110282.38      1239.6071     -21837.786     -21963.377     -21804.977     -21868.713      383804.9       8.7978953    
     26000   13             300.08704     -110283.45      1241.2186     -21840.036     -21930.532     -21909.954     -21893.507      383804.9       8.7978953    
     26200   13.1           300.47059     -110284.08      1242.805      -21907.362     -21916.478     -21929.189     -21917.676      383804.9       8.7978953    
     26400   13.2           300.96717     -110275.04      1244.859      -21735.221     -21841.485     -21835.857     -21804.188      383804.9       8.7978953    
     26600   13.3           300.19334     -110284.87      1241.6583     -21839.244     -21915.591     -21958.072     -21904.302      383804.9       8.7978953    
     26800   13.4           298.69171     -110279.04      1235.4473     -21909.051     -21844.619     -21875.007     -21876.226      383804.9       8.7978953    
     27000   13.5           300.50791     -110276.65      1242.9594     -21902.099     -21712.693     -21858.919     -21824.57       383804.9       8.7978953    
     27200   13.6           301.3685      -110287.39      1246.519      -21833.361     -21811.244     -22029.963     -21891.523      383804.9       8.7978953    
     27400   13.7           298.76134     -110281.96      1235.7353     -21849.167     -21875.872     -21894.035     -21873.024      383804.9       8.7978953    
     27600   13.8           297.46238     -110276.4       1230.3625     -21740.027     -21888.47      -21908.859     -21845.786      383804.9       8.7978953    
     27800   13.9           298.48104     -110280.95      1234.5759     -21907.781     -21810.422     -21934.936     -21884.38       383804.9       8.7978953    
     28000   14             297.74812     -110287.3       1231.5444     -22004.2       -21945.274     -21942.485     -21963.986      383804.9       8.7978953    
     28200   14.1           302.17471     -110285.73      1249.8536     -21889.043     -21834.089     -21965.274     -21896.135      383804.9       8.7978953    
     28400   14.2           300.02812     -110273.21      1240.9749     -21793.76      -21833.455     -21760.352     -21795.856      383804.9       8.7978953    
     28600   14.3           302.71839     -110285.74      1252.1024     -21924.994     -21833.108     -21924.488     -21894.197      383804.9       8.7978953    
     28800   14.4           298.50463     -110284.75      1234.6735     -21946.789     -21947.772     -21971.905     -21955.489      383804.9       8.7978953    
     29000   14.5           299.50521     -110293.68      1238.8121     -22023.342     -22110.162     -21896.77      -22010.091      383804.9       8.7978953    
     29200   14.6           300.08759     -110291.03      1241.2209     -21862.189     -21978.039     -22049.892     -21963.374      383804.9       8.7978953    
     29400   14.7           299.84104     -110284.63      1240.2011     -21867.753     -21956.729     -21914.707     -21913.063      383804.9       8.7978953    
     29600   14.8           299.78533     -110294.38      1239.9707     -21940.25      -21939.887     -22071.928     -21984.022      383804.9       8.7978953    
     29800   14.9           300.20793     -110281.17      1241.7186     -21893.59      -21851.11      -21890.571     -21878.424      383804.9       8.7978953    
     30000   15             300.54298     -110288.71      1243.1045     -21945.846     -21945.988     -21933.275     -21941.703      383804.9       8.7978953    
     30200   15.1           299.43632     -110280.98      1238.5271     -21805.983     -21910.276     -21856.239     -21857.499      383804.9       8.7978953    
     30400   15.2           296.37375     -110289.51      1225.8597     -21991.844     -22002.939     -21983.716     -21992.833      383804.9       8.7978953    
     30600   15.3           298.76115     -110292.33      1235.7345     -22024.954     -21958.75      -21978.93      -21987.544      383804.9       8.7978953    
     30800   15.4           296.64013     -110290.47      1226.9615     -22009.335     -21881.567     -22076.9       -21989.267      383804.9       8.7978953    
     31000   15.5           297.15003     -110286.74      1229.0706     -22018.475     -21924.56      -21947.147     -21963.394      383804.9       8.7978953    
     31200   15.6           297.66969     -110279.54      1231.22       -21836.464     -21831.023     -21950.878     -21872.789      383804.9       8.7978953    
     31400   15.7           300.19521     -110283.27      1241.666      -21893.592     -21827.779     -21931.052     -21884.141      383804.9       8.7978953    
     31600   15.8           299.92782     -110277.86      1240.5601     -21918.442     -21779.703     -21912.991     -21870.379      383804.9       8.7978953    
     31800   15.9           299.74336     -110275.19      1239.7971     -21772.267     -21834.673     -21879.759     -21828.9        383804.9       8.7978953    
     32000   16             300.61652     -110287.41      1243.4087     -22018.599     -21954.559     -21833.608     -21935.589      383804.9       8.7978953    
     32200   16.1           303.94072     -110284.53      1257.1582     -21843.464     -21851.487     -21914.361     -21869.771      383804.9       8.7978953    
     32400   16.2           301.78553     -110273.98      1248.2439     -21808.535     -21759.936     -21752.639     -21773.703      383804.9       8.7978953    
     32600   16.3           299.85477     -110281.39      1240.2579     -21815.246     -21921.258     -21930.683     -21889.062      383804.9       8.7978953    
     32800   16.4           298.37771     -110290.65      1234.1485     -22012.108     -22044.311     -21905.791     -21987.403      383804.9       8.7978953    
     33000   16.5           298.7502      -110285.8       1235.6892     -22009.93      -21938.249     -21891.692     -21946.624      383804.9       8.7978953    
     33200   16.6           296.80496     -110278.99      1227.6433     -21895.848     -21898.669     -21922.888     -21905.802      383804.9       8.7978953    
     33400   16.7           298.78519     -110279.34      1235.8339     -21951.158     -21846.363     -21784.015     -21860.512      383804.9       8.7978953    
     33600   16.8           298.50079     -110287.28      1234.6576     -21983.199     -21878.764     -21959.398     -21940.454      383804.9       8.7978953    
     33800   16.9           299.17844     -110282.96      1237.4605     -21897.808     -21821.992     -22015.916     -21911.906      383804.9       8.7978953    
     34000   17             298.4244      -110287.85      1234.3416     -22018.195     -21980.942     -21882.679     -21960.605      383804.9       8.7978953    
     34200   17.1           299.59072     -110289.52      1239.1657     -21996.532     -21950.775     -21937.373     -21961.56       383804.9       8.7978953    
     34400   17.2           301.4322      -110286.28      1246.7825     -21922.274     -21847.026     -21865.668     -21878.322      383804.9       8.7978953    
     34600   17.3           299.58345     -110284.16      1239.1357     -21976.799     -21862.481     -21836.619     -21891.966      383804.9       8.7978953    
     34800   17.4           299.30924     -110281.42      1238.0015     -21931.124     -21860.048     -21851.369     -21880.847      383804.9       8.7978953    
     35000   17.5           301.1094      -110287.18      1245.4473     -21969.928     -21829.515     -21928.288     -21909.243      383804.9       8.7978953    
     35200   17.6           301.23847     -110281.97      1245.9812     -21850.708     -21899.988     -21874.03      -21874.909      383804.9       8.7978953    
     35400   17.7           299.15311     -110271.03      1237.3557     -21818.815     -21781.117     -21779.175     -21793.035      383804.9       8.7978953    
     35600   17.8           300.90665     -110282.67      1244.6087     -21937.795     -21813.021     -21883.465     -21878.094      383804.9       8.7978953    
     35800   17.9           300.13536     -110280.59      1241.4185     -21872.298     -21815.863     -21911.901     -21866.688      383804.9       8.7978953    
     36000   18             299.22377     -110285.93      1237.648      -21894.773     -21965.833     -21924.259     -21928.288      383804.9       8.7978953    
     36200   18.1           298.24858     -110282.15      1233.6144     -22007.728     -21783.918     -22002.917     -21931.521      383804.9       8.7978953    
     36400   18.2           301.49275     -110281.56      1247.0329     -21906.485     -21857.267     -21810.059     -21857.937      383804.9       8.7978953    
     36600   18.3           300.08502     -110283.74      1241.2103     -21899.321     -21893.537     -21942.972     -21911.943      383804.9       8.7978953    
     36800   18.4           300.01343     -110283.47      1240.9142     -21973.388     -21797.042     -21907.074     -21892.501      383804.9       8.7978953    
     37000   18.5           300.78312     -110278.96      1244.0978     -21810.283     -21796.197     -21897.444     -21834.641      383804.9       8.7978953    
     37200   18.6           301.74568     -110280.38      1248.0791     -21878.904     -21854.739     -21807.576     -21847.073      383804.9       8.7978953    
     37400   18.7           300.77499     -110277.99      1244.0641     -21785.527     -21929.677     -21840.772     -21851.992      383804.9       8.7978953    
     37600   18.8           300.95291     -110281.76      1244.8        -21832.716     -21914.943     -21871.979     -21873.213      383804.9       8.7978953    
     37800   18.9           300.12586     -110272.76      1241.3792     -21728.933     -21833.466     -21824.124     -21795.508      383804.9       8.7978953    
     38000   19             299.43949     -110286.46      1238.5402     -21913.682     -21976.948     -21875.242     -21921.957      383804.9       8.7978953    
     38200   19.1           299.53138     -110290.81      1238.9203     -21992.796     -22004.922     -21903.989     -21967.236      383804.9       8.7978953    
     38400   19.2           298.83495     -110285.94      1236.0397     -21981.504     -21906.283     -21916.459     -21934.748      383804.9       8.7978953    
     38600   19.3           300.57851     -110289.26      1243.2515     -21995.002     -21983.358     -21892.68      -21957.013      383804.9       8.7978953    
     38800   19.4           298.98104     -110278.79      1236.644      -21830.873     -21949.042     -21774.12      -21851.345      383804.9       8.7978953    
     39000   19.5           298.48985     -110282.84      1234.6123     -21900.47      -21795.593     -21974.552     -21890.205      383804.9       8.7978953    
     39200   19.6           298.27157     -110279.42      1233.7095     -21807.795     -21881.003     -21958.023     -21882.274      383804.9       8.7978953    
     39400   19.7           298.94103     -110273.88      1236.4785     -21703.475     -21881.527     -21905.701     -21830.234      383804.9       8.7978953    
     39600   19.8           298.75601     -110282.79      1235.7132     -21933.3       -21832.127     -21908.276     -21891.234      383804.9       8.7978953    
     39800   19.9           299.77044     -110280.78      1239.9091     -21969.179     -21771.017     -21910.428     -21883.541      383804.9       8.7978953    
     40000   20             298.61441     -110282.02      1235.1275     -21911.251     -21738.247     -22003.962     -21884.487      383804.9       8.7978953    
     40200   20.1           300.17754     -110289.05      1241.5929     -21977.527     -21795.212     -22048.551     -21940.43       383804.9       8.7978953    
     40400   20.2           297.46669     -110284.81      1230.3803     -21869.28      -21936.659     -21959.933     -21921.957      383804.9       8.7978953    
     40600   20.3           297.21139     -110281.4       1229.3244     -21855.425     -21916.572     -21911.62      -21894.539      383804.9       8.7978953    
     40800   20.4           298.44897     -110284.2       1234.4432     -22012.895     -21866.332     -21880.006     -21919.744      383804.9       8.7978953    
     41000   20.5           299.65943     -110285.12      1239.4499     -21979.99      -21854.138     -21961.191     -21931.773      383804.9       8.7978953    
     41200   20.6           300.83415     -110274.86      1244.3088     -21795.367     -21780.422     -21783.212     -21786.334      383804.9       8.7978953    
     41400   20.7           302.01663     -110281.53      1249.1998     -21861.698     -21796.162     -21861.421     -21839.76       383804.9       8.7978953    
     41600   20.8           301.63928     -110288.82      1247.639      -21908.545     -21944.016     -21891.082     -21914.548      383804.9       8.7978953    
     41800   20.9           300.17217     -110281.07      1241.5708     -21841.055     -21838.168     -21896.342     -21858.522      383804.9       8.7978953    
     42000   21             300.62494     -110273.16      1243.4435     -21729.411     -21750.696     -21848.891     -21776.332      383804.9       8.7978953    
     42200   21.1           301.35547     -110274.52      1246.4651     -21815.908     -21793.702     -21763.676     -21791.095      383804.9       8.7978953    
     42400   21.2           300.53476     -110279.77      1243.0705     -21873.159     -21847.302     -21866.846     -21862.436      383804.9       8.7978953    
     42600   21.3           300.85118     -110278.22      1244.3793     -21845.623     -21736.875     -21918.804     -21833.767      383804.9       8.7978953    
     42800   21.4           299.93193     -110279.82      1240.5771     -21844.09      -21882.335     -21875.735     -21867.387      383804.9       8.7978953    
     43000   21.5           302.3893      -110281.57      1250.7412     -21894.768     -21840.292     -21855.977     -21863.679      383804.9       8.7978953    
     43200   21.6           300.47611     -110284.16      1242.8279     -22009.219     -21844.6       -21822.423     -21892.08       383804.9       8.7978953    
     43400   21.7           302.07641     -110288.81      1249.447      -21898.848     -21883.989     -21921.135     -21901.324      383804.9       8.7978953    
     43600   21.8           301.51349     -110282.85      1247.1187     -22000.224     -21796.792     -21849.353     -21882.123      383804.9       8.7978953    
     43800   21.9           301.78568     -110268.27      1248.2445     -21761.509     -21823.108     -21667.835     -21750.817      383804.9       8.7978953    
     44000   22             300.57936     -110273.72      1243.255      -21826.96      -21797.091     -21857.078     -21827.043      383804.9       8.7978953    
     44200   22.1           299.52171     -110274.31      1238.8803     -21839.92      -21821.998     -21843.766     -21835.228      383804.9       8.7978953    
     44400   22.2           299.77676     -110291.42      1239.9352     -22045.503     -21964.533     -21926.218     -21978.751      383804.9       8.7978953    
     44600   22.3           296.66318     -110272.45      1227.0569     -21831.125     -21833.216     -21804.716     -21823.019      383804.9       8.7978953    
     44800   22.4           297.94932     -110271.26      1232.3766     -21798.712     -21719.346     -21788.345     -21768.801      383804.9       8.7978953    
     45000   22.5           300.42921     -110275.86      1242.6339     -21776.908     -21835.137     -21863.555     -21825.2        383804.9       8.7978953    
     45200   22.6           300.56489     -110289.27      1243.1951     -21887.342     -21956.308     -21990.608     -21944.753      383804.9       8.7978953    
     45400   22.7           297.12436     -110281.66      1228.9644     -21839.693     -21984.283     -21910.143     -21911.373      383804.9       8.7978953    
     45600   22.8           296.66419     -110278.64      1227.061      -21821.351     -21958.836     -21960.347     -21913.512      383804.9       8.7978953    
     45800   22.9           299.29102     -110286.72      1237.9261     -21840.439     -21972.732     -21964.929     -21926.033      383804.9       8.7978953    
     46000   23             300.79642     -110295.31      1244.1528     -22065.329     -21969.141     -22010.017     -22014.829      383804.9       8.7978953    
     46200   23.1           298.51783     -110287.01      1234.7281     -21980.472     -21821.004     -22043.831     -21948.436      383804.9       8.7978953    
     46400   23.2           300.29345     -110291.69      1242.0724     -21906.257     -22008.847     -21939.46      -21951.521      383804.9       8.7978953    
     46600   23.3           299.20145     -110282.03      1237.5557     -21893.859     -21840.515     -21934.441     -21889.605      383804.9       8.7978953    
     46800   23.4           298.70355     -110282.88      1235.4962     -21815.599     -21927.921     -21972.696     -21905.405      383804.9       8.7978953    
     47000   23.5           299.85326     -110281.28      1240.2516     -21836.02      -21864.193     -21875.865     -21858.693      383804.9       8.7978953    
     47200   23.6           299.8812      -110279.32      1240.3672     -21821.417     -21878.957     -21876.528     -21858.967      383804.9       8.7978953    
     47400   23.7           299.41867     -110277.24      1238.4541     -21851.989     -21911.075     -21768.891     -21843.985      383804.9       8.7978953    
     47600   23.8           300.71796     -110283.34      1243.8282     -21892.226     -21912.412     -21871.127     -21891.922      383804.9       8.7978953    
     47800   23.9           301.10916     -110276.67      1245.4463     -21798.31      -21794.039     -21880.597     -21824.315      383804.9       8.7978953    
     48000   24             297.90079     -110279.8       1232.1759     -21879.276     -21869.089     -21918.884     -21889.083      383804.9       8.7978953    
     48200   24.1           300.57876     -110284.5       1243.2525     -21915.652     -21877.515     -21888.177     -21893.781      383804.9       8.7978953    
     48400   24.2           299.07716     -110283.29      1237.0416     -21837.066     -21900.153     -21992.133     -21909.784      383804.9       8.7978953    
     48600   24.3           300.80869     -110282.83      1244.2035     -21829.342     -21858.553     -21969.17      -21885.688      383804.9       8.7978953    
     48800   24.4           301.8885      -110286.3       1248.6698     -21844.501     -21858.68      -22018.873     -21907.351      383804.9       8.7978953    
     49000   24.5           298.90295     -110279.66      1236.321      -21860.053     -21870.303     -21832.104     -21854.153      383804.9       8.7978953    
     49200   24.6           300.79436     -110278.75      1244.1443     -21791.675     -21900.104     -21822.254     -21838.011      383804.9       8.7978953    
     49400   24.7           302.32407     -110275.96      1250.4714     -21813.647     -21792.291     -21689.919     -21765.286      383804.9       8.7978953    
     49600   24.8           302.27886     -110278.16      1250.2844     -21729.404     -21880.695     -21877.557     -21829.219      383804.9       8.7978953    
     49800   24.9           299.91066     -110276.69      1240.4891     -21872.273     -21794.592     -21786.421     -21817.762      383804.9       8.7978953    
     50000   25             299.76744     -110281.73      1239.8967     -21837.686     -21933.607     -21847.082     -21872.792      383804.9       8.7978953    
Loop time of 41.6365 on 1 procs for 50000 steps with 32000 atoms

Performance: 51.878 ns/day, 0.463 hours/ns, 1200.869 timesteps/s, 38.428 Matom-step/s
99.7% CPU use with 1 MPI tasks x 1 OpenMP threads

MPI task timing breakdown:
Section |  min time  |  avg time  |  max time  |%varavg| %total
---------------------------------------------------------------
Pair    | 26.468     | 26.468     | 26.468     |   0.0 | 63.57
Neigh   | 0          | 0          | 0          |   0.0 |  0.00
Comm    | 11.029     | 11.029     | 11.029     |   0.0 | 26.49
Output  | 0.1174     | 0.1174     | 0.1174     |   0.0 |  0.28
Modify  | 2.0471     | 2.0471     | 2.0471     |   0.0 |  4.92
Other   |            | 1.975      |            |       |  4.74

Nlocal:          32000 ave       32000 max       32000 min
Histogram: 1 0 0 0 0 0 0 0 0 0
Nghost:          26825 ave       26825 max       26825 min
Histogram: 1 0 0 0 0 0 0 0 0 0
Neighs:      2.816e+06 ave   2.816e+06 max   2.816e+06 min
Histogram: 1 0 0 0 0 0 0 0 0 0

Total # of neighbors = 2816000
Ave neighs/atom = 88
Neighbor list builds = 0
Dangerous builds = 0
Total wall time: 0:00:44
