LAMMPS (10 Sep 2025)
KOKKOS mode with Kokkos version 4.6.2 is enabled
  using double precision
  using view layout = legacy
  will use up to 1 GPU(s) per node
  using 1 OpenMP thread(s) per MPI task
package kokkos
package kokkos newton on neigh half comm device
dimension       3
units           metal
atom_style      atomic
boundary        p p p

# --- Create FCC Cu lattice ---
#lattice         fcc 3.52
#region          box block 0 20 0 20 0 20
#create_box      1 box
#create_atoms    1 box
#mass            1 63.546

read_data       ../../../eos/1.07V/Cu-1.07V.lmp
Reading data file ...
  orthogonal box = (-0.8028768 -0.8028768 -0.8028768) to (71.202877 71.202877 71.202877)
  1 by 1 by 1 MPI processor grid
  reading atoms ...
  32000 atoms
  reading velocities ...
  32000 velocities
  read_data CPU = 0.131 seconds
#change_box     all x scale _scale_ y scale _scale_ z scale _scale_ remap

neighbor        2.0 bin
neigh_modify    delay 0 every 1 check yes

pair_style      eam/alloy
pair_coeff      * * Cu-EAM-Z1622old.eam.alloy Cu

shell           "mkdir -p dumps"

variable	thold equal 300
variable	itemp equal 2*300
variable	runNVE equal 50000
variable	tstep equal 0.0005
variable	ph string 300K-1.07V

timestep        ${tstep}
timestep        0.0005
thermo          200
thermo_style    custom step time temp pe ke pxx pyy pzz press vol density
#thermo_modify	norm yes

dump        	RDUMP all custom 20000 dumps/${ph}-NV-300K-*.xyz id type x y z
dump        	RDUMP all custom 20000 dumps/300K-1.07V-NV-300K-*.xyz id type x y z

#NV  300K calculation
velocity 		all create ${itemp}  23796
velocity 		all create 600  23796

fix 			LANG all langevin ${thold} ${thold} $(300.0*dt) 33948
fix 			LANG all langevin 300 ${thold} $(300.0*dt) 33948
fix 			LANG all langevin 300 300 $(300.0*dt) 33948
fix 			LANG all langevin 300 300 0.14999999999999999445 33948
fix 			NVE all nve
run  			${runNVE}
run  			50000
Neighbor list info ...
  update: every = 1 steps, delay = 0 steps, check = yes
  max neighbors/atom: 2000, page size: 100000
  master list distance cutoff = 7.859375
  ghost atom cutoff = 7.859375
  binsize = 7.859375, bins = 10 10 10
  1 neighbor lists, perpetual/occasional/extra = 1 0 0
  (1) pair eam/alloy/kk, perpetual
      attributes: half, newton on, kokkos_device
      pair build: half/bin/newton/kk/device
      stencil: half/bin/3d
      bin: kk/device
Per MPI rank memory allocation (min/avg/max) = 11.5 | 11.5 | 11.5 Mbytes
   Step          Time           Temp          PotEng         KinEng          Pxx            Pyy            Pzz           Press          Volume        Density    
         0   0              600           -111669.91      2481.7172      5614.3049      5572.3978      5573.9613      5586.888       373337.49      9.0445655    
       200   0.1            287.84539     -110365.61      1190.5848      13421.583      13280.923      13340.862      13347.789      373337.49      9.0445655    
       400   0.2            304.68138     -110439.51      1260.2217      12682.975      12606.022      12745.22       12678.072      373337.49      9.0445655    
       600   0.3            296.40455     -110408.76      1225.9871      12913.385      12868.69       12910.915      12897.663      373337.49      9.0445655    
       800   0.4            297.76997     -110413.69      1231.6348      12909.372      12795.787      12928.121      12877.76       373337.49      9.0445655    
      1000   0.5            298.23207     -110420.35      1233.5461      12779.516      12837.06       12819.071      12811.882      373337.49      9.0445655    
      1200   0.6            301.12765     -110421.7       1245.5228      12879.042      12762.578      12887.854      12843.158      373337.49      9.0445655    
      1400   0.7            300.43669     -110418.22      1242.6648      12924.784      12867.415      12845.337      12879.179      373337.49      9.0445655    
      1600   0.8            299.55228     -110429.73      1239.0068      12708.251      12867.739      12659.379      12745.123      373337.49      9.0445655    
      1800   0.9            298.33707     -110414.08      1233.9804      12884.935      12858.769      12876.351      12873.352      373337.49      9.0445655    
      2000   1              302.32701     -110406.25      1250.4836      13109.639      12953.672      13016.758      13026.69       373337.49      9.0445655    
      2200   1.1            299.98236     -110410.56      1240.7857      12917.604      12961.099      12962.51       12947.071      373337.49      9.0445655    
      2400   1.2            299.42958     -110416.03      1238.4993      12883.183      12927.119      12798.451      12869.584      373337.49      9.0445655    
      2600   1.3            300.51348     -110410.79      1242.9825      12886.289      12948.516      12973.884      12936.23       373337.49      9.0445655    
      2800   1.4            299.54254     -110419.57      1238.9665      12953.553      12742.615      12838.969      12845.046      373337.49      9.0445655    
      3000   1.5            297.49825     -110413.41      1230.5109      12987.08       12866.97       12868.25       12907.433      373337.49      9.0445655    
      3200   1.6            301.44556     -110413.75      1246.8378      12938.885      12927.119      12892.842      12919.615      373337.49      9.0445655    
      3400   1.7            298.48674     -110410.61      1234.5995      12910.571      12977.854      12879.892      12922.772      373337.49      9.0445655    
      3600   1.8            299.26064     -110411.62      1237.8005      12960.808      12914.077      12857.761      12910.882      373337.49      9.0445655    
      3800   1.9            298.38092     -110423.35      1234.1618      12690.414      12925.854      12717.216      12777.828      373337.49      9.0445655    
      4000   2              298.93591     -110412.24      1236.4573      12863.833      12964.552      12845.584      12891.323      373337.49      9.0445655    
      4200   2.1            297.78856     -110410.69      1231.7117      12860.701      12943.865      12930.209      12911.592      373337.49      9.0445655    
      4400   2.2            300.11623     -110415.41      1241.3394      12847.722      13018.659      12862.313      12909.564      373337.49      9.0445655    
      4600   2.3            298.50411     -110413.93      1234.6713      12893.798      12901.182      12820          12871.66       373337.49      9.0445655    
      4800   2.4            297.43156     -110416.59      1230.235       12859.141      12821.315      12813.393      12831.283      373337.49      9.0445655    
      5000   2.5            299.17146     -110422.14      1237.4316      12828.027      12853.117      12787.491      12822.878      373337.49      9.0445655    
      5200   2.6            300.72853     -110426.56      1243.8719      12831.372      12803.342      12794.334      12809.682      373337.49      9.0445655    
      5400   2.7            300.98696     -110430.95      1244.9409      12905.07       12631.211      12731.798      12756.026      373337.49      9.0445655    
      5600   2.8            299.64515     -110415.18      1239.3909      12882.121      12940.669      12801.063      12874.617      373337.49      9.0445655    
      5800   2.9            298.78592     -110419.98      1235.8369      12690.85       12848.054      12905.206      12814.703      373337.49      9.0445655    
      6000   3              298.45542     -110417.34      1234.4699      12816.405      12843.184      12885.423      12848.337      373337.49      9.0445655    
      6200   3.1            299.50438     -110413.2       1238.8086      12921.797      12934.118      12919.346      12925.087      373337.49      9.0445655    
      6400   3.2            303.07941     -110415.54      1253.5957      12902.385      12879.876      12983.803      12922.021      373337.49      9.0445655    
      6600   3.3            300.42429     -110408.26      1242.6136      12919.4        12933.203      12996.765      12949.789      373337.49      9.0445655    
      6800   3.4            299.16577     -110414.97      1237.4081      12907.66       12807.583      12904.533      12873.259      373337.49      9.0445655    
      7000   3.5            300.27987     -110418.13      1242.0162      12898.606      12883.022      12883.789      12888.472      373337.49      9.0445655    
      7200   3.6            299.52517     -110422.69      1238.8946      12868.868      12728.428      12811.306      12802.867      373337.49      9.0445655    
      7400   3.7            298.32388     -110416.19      1233.9258      12767.506      12856.953      12933.937      12852.799      373337.49      9.0445655    
      7600   3.8            299.7197      -110417.89      1239.6993      12757.141      12956.332      12875.102      12862.858      373337.49      9.0445655    
      7800   3.9            298.69409     -110411.41      1235.4571      12912.495      12875.925      12924.845      12904.422      373337.49      9.0445655    
      8000   4              299.7751      -110414.73      1239.9284      12866.056      13023.818      12810.017      12899.964      373337.49      9.0445655    
      8200   4.1            300.79742     -110408.3       1244.1569      12976.434      12917.957      13039.643      12978.011      373337.49      9.0445655    
      8400   4.2            301.59076     -110413.93      1247.4383      12844.659      12943.884      12919.388      12902.643      373337.49      9.0445655    
      8600   4.3            300.75717     -110412.96      1243.9904      12931.766      12826.218      12925.838      12894.607      373337.49      9.0445655    
      8800   4.4            300.37434     -110407.89      1242.407       12978.827      12931.13       12940.065      12950.007      373337.49      9.0445655    
      9000   4.5            301.59423     -110405.2       1247.4527      13061.124      12939.769      12966.479      12989.124      373337.49      9.0445655    
      9200   4.6            302.83285     -110412.62      1252.5758      12922.493      12965.067      12941.825      12943.128      373337.49      9.0445655    
      9400   4.7            301.3579      -110409.84      1246.4751      12960.926      12911.884      13019.905      12964.238      373337.49      9.0445655    
      9600   4.8            300.48716     -110414.57      1242.8736      12952.875      12889.379      12861.409      12901.221      373337.49      9.0445655    
      9800   4.9            298.97988     -110421.19      1236.6392      12811.859      12718.886      12906.687      12812.477      373337.49      9.0445655    
     10000   5              299.62884     -110416.16      1239.3234      12955.129      12815.253      12861.46       12877.281      373337.49      9.0445655    
     10200   5.1            301.03525     -110408.29      1245.1406      12884.663      12976.552      12942.073      12934.429      373337.49      9.0445655    
     10400   5.2            301.82681     -110410.37      1248.4146      12890.626      12977.67       12945.509      12937.935      373337.49      9.0445655    
     10600   5.3            301.32183     -110419.23      1246.326       12924.791      12829.218      12887.453      12880.487      373337.49      9.0445655    
     10800   5.4            301.92082     -110420.27      1248.8035      12950.821      12813.602      12816.593      12860.338      373337.49      9.0445655    
     11000   5.5            300.96552     -110423.02      1244.8522      12774.577      12884.682      12822.008      12827.089      373337.49      9.0445655    
     11200   5.6            298.17229     -110410.87      1233.2989      12974.375      12871.181      12880.151      12908.569      373337.49      9.0445655    
     11400   5.7            296.98586     -110413.08      1228.3915      12852.157      12920.713      12894.516      12889.129      373337.49      9.0445655    
     11600   5.8            299.88136     -110413.18      1240.3679      12820.79       12992.823      12882.579      12898.731      373337.49      9.0445655    
     11800   5.9            299.96226     -110414.39      1240.7025      12840.971      12933.524      12917.461      12897.319      373337.49      9.0445655    
     12000   6              299.12517     -110420.67      1237.2401      12835.613      12853.432      12860.171      12849.739      373337.49      9.0445655    
     12200   6.1            301.21956     -110423.84      1245.903       12916.789      12754.568      12817.372      12829.576      373337.49      9.0445655    
     12400   6.2            300.02021     -110417.41      1240.9422      12866.449      12854.545      12847.383      12856.126      373337.49      9.0445655    
     12600   6.3            299.42029     -110417.68      1238.4608      12892.74       12815.569      12895.422      12867.91       373337.49      9.0445655    
     12800   6.4            301.31392     -110416.69      1246.2932      12904.596      12799.317      12981.069      12894.994      373337.49      9.0445655    
     13000   6.5            300.74698     -110414.07      1243.9483      12934.169      12898.205      12851.604      12894.659      373337.49      9.0445655    
     13200   6.6            299.04643     -110417.43      1236.9144      12888.196      12856.221      12864.968      12869.795      373337.49      9.0445655    
     13400   6.7            300.32965     -110418.32      1242.2221      12851.852      12872.239      12883.552      12869.214      373337.49      9.0445655    
     13600   6.8            297.37419     -110421.45      1229.9977      12753.006      12759.22       12894.297      12802.174      373337.49      9.0445655    
     13800   6.9            296.33264     -110419.08      1225.6897      12779.852      12810.523      12893.973      12828.116      373337.49      9.0445655    
     14000   7              301.07494     -110423.41      1245.3048      12730.8        12877.589      12905.322      12837.904      373337.49      9.0445655    
     14200   7.1            299.19815     -110415.92      1237.542       12905.472      12921.33       12899.264      12908.689      373337.49      9.0445655    
     14400   7.2            298.65267     -110414.9       1235.2858      12838.623      12818.132      12983.235      12879.997      373337.49      9.0445655    
     14600   7.3            297.79531     -110425.43      1231.7396      12804.075      12817.33       12766.565      12795.99       373337.49      9.0445655    
     14800   7.4            300.34915     -110422.34      1242.3028      12752.006      12807.401      12919.63       12826.346      373337.49      9.0445655    
     15000   7.5            298.94951     -110421.27      1236.5136      12803.616      12875.718      12762.088      12813.807      373337.49      9.0445655    
     15200   7.6            299.52689     -110414.2       1238.9017      12947.353      12977.363      12799.528      12908.081      373337.49      9.0445655    
     15400   7.7            299.49186     -110406.91      1238.7568      13084.113      12848.116      12958.933      12963.721      373337.49      9.0445655    
     15600   7.8            301.34969     -110411.96      1246.4412      12962.447      12902.405      12973.199      12946.017      373337.49      9.0445655    
     15800   7.9            300.24007     -110418.66      1241.8516      12856.203      12857.405      12848.559      12854.056      373337.49      9.0445655    
     16000   8              300.97804     -110417.55      1244.904       12712.925      12891.795      12963.772      12856.164      373337.49      9.0445655    
     16200   8.1            300.33817     -110419.32      1242.2574      12914.707      12806.057      12847.959      12856.241      373337.49      9.0445655    
     16400   8.2            301.23627     -110417.35      1245.9721      12991.746      12766.558      12889.297      12882.534      373337.49      9.0445655    
     16600   8.3            300.58566     -110424.3       1243.281       12874.686      12771.933      12787.436      12811.352      373337.49      9.0445655    
     16800   8.4            297.87567     -110409.78      1232.072       12874.344      13028.236      12819.045      12907.208      373337.49      9.0445655    
     17000   8.5            300.62866     -110428.67      1243.4589      12795.632      12806.474      12753.03       12785.045      373337.49      9.0445655    
     17200   8.6            298.10866     -110417.43      1233.0357      12776.095      12792.397      12932.714      12833.736      373337.49      9.0445655    
     17400   8.7            300.56586     -110421.89      1243.1991      12812.303      12821.847      12871.8        12835.317      373337.49      9.0445655    
     17600   8.8            300.67159     -110420.49      1243.6365      12922.229      12826.024      12763.172      12837.141      373337.49      9.0445655    
     17800   8.9            301.17609     -110409.33      1245.7232      13034.679      12917.159      12890.573      12947.47       373337.49      9.0445655    
     18000   9              300.64694     -110419.63      1243.5345      12894.586      12928.621      12777.988      12867.065      373337.49      9.0445655    
     18200   9.1            297.89547     -110412.58      1232.1539      12901.393      13022.367      12777.565      12900.442      373337.49      9.0445655    
     18400   9.2            300.88451     -110421.87      1244.5171      12802.534      12861.12       12863.144      12842.266      373337.49      9.0445655    
     18600   9.3            299.92903     -110409.7       1240.5651      13013.922      12983.103      12870.444      12955.823      373337.49      9.0445655    
     18800   9.4            299.594       -110406.92      1239.1793      12954.091      13012.459      12923.05       12963.2        373337.49      9.0445655    
     19000   9.5            300.12916     -110409.67      1241.3929      12856.742      12931.828      13010.994      12933.188      373337.49      9.0445655    
     19200   9.6            301.86157     -110404.03      1248.5584      13090.758      12989.658      12975.955      13018.79       373337.49      9.0445655    
     19400   9.7            298.68986     -110410.99      1235.4396      12901.681      13021.801      12834.28       12919.254      373337.49      9.0445655    
     19600   9.8            298.77676     -110416.1       1235.799       12868.163      12910.446      12839.761      12872.79       373337.49      9.0445655    
     19800   9.9            298.90364     -110415.22      1236.3239      12884.766      12941.194      12887.547      12904.502      373337.49      9.0445655    
     20000   10             299.77129     -110411.89      1239.9126      12991.204      12920.622      12922.663      12944.83       373337.49      9.0445655    
     20200   10.1           298.27418     -110406.86      1233.7203      13093.41       12916.052      12869.1        12959.521      373337.49      9.0445655    
     20400   10.2           299.09821     -110419.27      1237.1286      12849.535      12757.9        12923.896      12843.777      373337.49      9.0445655    
     20600   10.3           298.60836     -110408.28      1235.1025      13002.986      12878.454      12997.986      12959.809      373337.49      9.0445655    
     20800   10.4           297.21077     -110414.95      1229.3218      12882.988      12862.198      12912.241      12885.809      373337.49      9.0445655    
     21000   10.5           298.06715     -110414.11      1232.864       12865.885      12910.893      12838.238      12871.672      373337.49      9.0445655    
     21200   10.6           298.41656     -110423.75      1234.3092      12732.414      12819.506      12816.895      12789.605      373337.49      9.0445655    
     21400   10.7           298.17132     -110416.64      1233.2948      12784.175      12856.988      12916.206      12852.456      373337.49      9.0445655    
     21600   10.8           301.05086     -110425.62      1245.2052      12804.177      12818.789      12811.361      12811.442      373337.49      9.0445655    
     21800   10.9           300.88642     -110416.83      1244.525       12896.785      12863.614      12907.57       12889.323      373337.49      9.0445655    
     22000   11             300.36989     -110406.59      1242.3886      12902.228      13005.147      13004.593      12970.656      373337.49      9.0445655    
     22200   11.1           298.47457     -110411.13      1234.5491      12844.22       12909.101      12950.068      12901.13       373337.49      9.0445655    
     22400   11.2           298.16506     -110417.84      1233.2689      12840.853      12904.114      12825.813      12856.926      373337.49      9.0445655    
     22600   11.3           299.99112     -110428.08      1240.8219      12873.415      12693.138      12772.185      12779.579      373337.49      9.0445655    
     22800   11.4           298.88706     -110416.17      1236.2553      12854.894      12893.842      12847.225      12865.321      373337.49      9.0445655    
     23000   11.5           300.14656     -110420.47      1241.4648      12745.607      12896.707      12876.443      12839.586      373337.49      9.0445655    
     23200   11.6           299.18059     -110419.29      1237.4694      12903.953      12850.669      12746.653      12833.758      373337.49      9.0445655    
     23400   11.7           298.50564     -110424.1       1234.6776      12670.763      12898.951      12800.525      12790.08       373337.49      9.0445655    
     23600   11.8           299.63456     -110423.69      1239.3471      12879.664      12830.831      12703.863      12804.786      373337.49      9.0445655    
     23800   11.9           298.07118     -110416.86      1232.8806      12904.238      12827.954      12825.172      12852.455      373337.49      9.0445655    
     24000   12             298.61908     -110418.03      1235.1468      12825.827      12885.592      12866.828      12859.415      373337.49      9.0445655    
     24200   12.1           299.41142     -110412.77      1238.4241      12891.381      12899.844      12887.2        12892.808      373337.49      9.0445655    
     24400   12.2           301.19714     -110417.37      1245.8102      12863.574      12914.142      12897.793      12891.836      373337.49      9.0445655    
     24600   12.3           299.09608     -110406.13      1237.1198      13018.412      12924.385      12968.995      12970.597      373337.49      9.0445655    
     24800   12.4           297.36134     -110422.52      1229.9446      12814.476      12780.782      12773.86       12789.706      373337.49      9.0445655    
     25000   12.5           298.38259     -110416.53      1234.1687      12934.895      12902.023      12743.819      12860.246      373337.49      9.0445655    
     25200   12.6           298.07727     -110408.9       1232.9058      12913.114      12879.467      12947.087      12913.223      373337.49      9.0445655    
     25400   12.7           300.7327      -110420.15      1243.8892      12826.328      12886.285      12835.687      12849.433      373337.49      9.0445655    
     25600   12.8           299.02522     -110409.71      1236.8268      12878.586      12998.764      12926.732      12934.694      373337.49      9.0445655    
     25800   12.9           299.36911     -110414.51      1238.2491      12924.424      12809.752      13001.135      12911.77       373337.49      9.0445655    
     26000   13             300.76748     -110417.66      1244.0331      12946.535      12799.318      12891.159      12879.004      373337.49      9.0445655    
     26200   13.1           300.27656     -110415.55      1242.0025      12882.046      12869.749      12887.972      12879.922      373337.49      9.0445655    
     26400   13.2           300.80038     -110407.23      1244.1691      13041.597      12928.023      12964.386      12978.002      373337.49      9.0445655    
     26600   13.3           300.19613     -110420.33      1241.6698      12947.749      12862.025      12757.982      12855.919      373337.49      9.0445655    
     26800   13.4           298.89516     -110412.47      1236.2888      12890.734      12954.84       12848.273      12897.949      373337.49      9.0445655    
     27000   13.5           300.84854     -110409.98      1244.3684      12832.597      13048.871      12947.011      12942.827      373337.49      9.0445655    
     27200   13.6           301.34866     -110416.64      1246.4369      12984.047      12967.306      12774.617      12908.657      373337.49      9.0445655    
     27400   13.7           298.68532     -110412.14      1235.4209      12976.117      12921.001      12890.995      12929.371      373337.49      9.0445655    
     27600   13.8           298.49388     -110415.7       1234.629       12992.32       12847.857      12812.013      12884.063      373337.49      9.0445655    
     27800   13.9           298.5237      -110415.34      1234.7524      12881.309      12932.763      12805.999      12873.357      373337.49      9.0445655    
     28000   14             297.39111     -110420.53      1230.0677      12769.181      12821.898      12813.919      12801.666      373337.49      9.0445655    
     28200   14.1           300.92393     -110414.49      1244.6802      12928.261      12944.049      12840.651      12904.32       373337.49      9.0445655    
     28400   14.2           300.75355     -110409.95      1243.9754      12983.195      12910.071      12952.642      12948.636      373337.49      9.0445655    
     28600   14.3           302.22711     -110418.51      1250.0704      12879.321      12920.436      12841.309      12880.356      373337.49      9.0445655    
     28800   14.4           298.51834     -110418.59      1234.7302      12817.897      12833.255      12812.743      12821.298      373337.49      9.0445655    
     29000   14.5           299.63363     -110425.59      1239.3432      12773.626      12674.986      12880.835      12776.482      373337.49      9.0445655    
     29200   14.6           299.31057     -110421         1238.007       12920.622      12842.575      12765.691      12842.963      373337.49      9.0445655    
     29400   14.7           299.5534      -110413.73      1239.0114      12968.711      12848.236      12898.418      12905.122      373337.49      9.0445655    
     29600   14.8           299.30957     -110424.69      1238.0029      12859.997      12841.891      12747.093      12816.327      373337.49      9.0445655    
     29800   14.9           300.19204     -110410.23      1241.6529      12946.409      12970.044      12910.995      12942.483      373337.49      9.0445655    
     30000   15             300.96705     -110420.39      1244.8585      12866.194      12810.403      12874.677      12850.424      373337.49      9.0445655    
     30200   15.1           299.67599     -110415.15      1239.5184      12957.601      12868.492      12885.649      12903.914      373337.49      9.0445655    
     30400   15.2           296.02441     -110425.72      1224.4148      12781.169      12726.646      12755.786      12754.533      373337.49      9.0445655    
     30600   15.3           298.27502     -110427.07      1233.7237      12791.738      12797.23       12732.341      12773.77       373337.49      9.0445655    
     30800   15.4           296.29065     -110424.64      1225.516       12786.205      12856.339      12694.548      12779.031      373337.49      9.0445655    
     31000   15.5           296.71499     -110419.54      1227.2712      12788.778      12843.835      12829.579      12820.731      373337.49      9.0445655    
     31200   15.6           298.81775     -110417.04      1235.9686      12925.927      12879.261      12783.965      12863.051      373337.49      9.0445655    
     31400   15.7           299.25732     -110414.8       1237.7867      12846.327      12945.217      12866.066      12885.87       373337.49      9.0445655    
     31600   15.8           299.57041     -110410.48      1239.0817      12882.628      12976.586      12871.585      12910.266      373337.49      9.0445655    
     31800   15.9           299.9552      -110407.11      1240.6733      13017.598      12905.055      12938.799      12953.817      373337.49      9.0445655    
     32000   16             300.91378     -110420.28      1244.6382      12776.893      12833.874      12934.779      12848.515      373337.49      9.0445655    
     32200   16.1           303.28603     -110414.4       1254.4503      12985.111      12938.811      12875.012      12932.978      373337.49      9.0445655    
     32400   16.2           301.50805     -110407.35      1247.0962      12957.551      13013.332      12983.373      12984.752      373337.49      9.0445655    
     32600   16.3           299.86409     -110412.46      1240.2965      12987.207      12857.125      12840.308      12894.88       373337.49      9.0445655    
     32800   16.4           298.71649     -110423.71      1235.5497      12783.018      12720.787      12871.564      12791.79       373337.49      9.0445655    
     33000   16.5           297.96983     -110419.4       1232.4614      12803.774      12787.68       12866.883      12819.446      373337.49      9.0445655    
     33200   16.6           296.78377     -110416.14      1227.5557      12823.327      12849.054      12798.099      12823.493      373337.49      9.0445655    
     33400   16.7           298.74222     -110418.09      1235.6562      12768.992      12843.163      12936.497      12849.551      373337.49      9.0445655    
     33600   16.8           297.44947     -110418.89      1230.3091      12801.326      12862.688      12820.907      12828.307      373337.49      9.0445655    
     33800   16.9           298.46972     -110416.54      1234.5291      12864.777      12897.954      12738.304      12833.678      373337.49      9.0445655    
     34000   17             298.57988     -110423.84      1234.9847      12731.806      12773.043      12864.229      12789.693      373337.49      9.0445655    
     34200   17.1           299.86414     -110422.98      1240.2967      12802.41       12836.603      12808.404      12815.806      373337.49      9.0445655    
     34400   17.2           301.35097     -110418.47      1246.4465      12873.875      12923.147      12894.339      12897.12       373337.49      9.0445655    
     34600   17.3           299.11621     -110416.47      1237.2031      12839.205      12916.44       12926.106      12893.917      373337.49      9.0445655    
     34800   17.4           299.02191     -110415.21      1236.813       12802.104      12927.519      12943.611      12891.078      373337.49      9.0445655    
     35000   17.5           300.86938     -110423.07      1244.4546      12744.148      12942.491      12828.335      12838.325      373337.49      9.0445655    
     35200   17.6           300.65549     -110414.2       1243.5698      12916.651      12899.724      12901.896      12906.091      373337.49      9.0445655    
     35400   17.7           299.41531     -110406.22      1238.4402      12938.235      12963.762      12957.687      12953.228      373337.49      9.0445655    
     35600   17.8           300.9248      -110412.75      1244.6838      12875.018      12987.058      12907.672      12923.249      373337.49      9.0445655    
     35800   17.9           299.3813      -110410.97      1238.2995      12915.298      12986.037      12850.331      12917.222      373337.49      9.0445655    
     36000   18             298.95716     -110420.58      1236.5452      12878.463      12794.781      12781.551      12818.265      373337.49      9.0445655    
     36200   18.1           299.02514     -110420.35      1236.8264      12721.803      12952.705      12739.563      12804.69       373337.49      9.0445655    
     36400   18.2           300.95191     -110416.98      1244.7959      12829.774      12912.145      12928.531      12890.15       373337.49      9.0445655    
     36600   18.3           299.76491     -110416.28      1239.8862      12880.266      12899.053      12819.479      12866.266      373337.49      9.0445655    
     36800   18.4           299.538       -110414.05      1238.9477      12848.89       12955.395      12882.312      12895.532      373337.49      9.0445655    
     37000   18.5           301.19311     -110411.32      1245.7935      12966.795      13014.28       12891.85       12957.642      373337.49      9.0445655    
     37200   18.6           301.68607     -110411.21      1247.8325      12944.953      12940.168      12959.622      12948.248      373337.49      9.0445655    
     37400   18.7           300.74513     -110408.38      1243.9406      13007.443      12886.066      12966.407      12953.305      373337.49      9.0445655    
     37600   18.8           300.89416     -110416.95      1244.557       12932.167      12858.03       12880.657      12890.285      373337.49      9.0445655    
     37800   18.9           300.05165     -110404.62      1241.0722      13007.117      12974.25       12956.851      12979.406      373337.49      9.0445655    
     38000   19             299.07898     -110418.16      1237.0491      12885.898      12789.773      12927.193      12867.621      373337.49      9.0445655    
     38200   19.1           299.19792     -110419.67      1237.5411      12828.762      12832.835      12896.393      12852.663      373337.49      9.0445655    
     38400   19.2           299.34784     -110417.51      1238.1612      12800.957      12921.705      12867.954      12863.539      373337.49      9.0445655    
     38600   19.3           299.98081     -110422.03      1240.7792      12772.613      12782.219      12918.612      12824.481      373337.49      9.0445655    
     38800   19.4           298.95052     -110412.89      1236.5178      12900.355      12814.638      13014.4        12909.798      373337.49      9.0445655    
     39000   19.5           297.04875     -110412.97      1228.6517      12849.634      12960.74       12852.685      12887.686      373337.49      9.0445655    
     39200   19.6           298.29295     -110412.98      1233.7979      12942.342      12890.518      12839.083      12890.648      373337.49      9.0445655    
     39400   19.7           297.99096     -110404.93      1232.5488      13093.803      12853.629      12901.308      12949.58       373337.49      9.0445655    
     39600   19.8           298.1366      -110416.03      1233.1512      12788.459      12954.69       12847.691      12863.613      373337.49      9.0445655    
     39800   19.9           299.59843     -110414.34      1239.1976      12784.985      12985.004      12859.185      12876.391      373337.49      9.0445655    
     40000   20             297.74644     -110412.04      1231.5375      12873.933      13058.729      12772.68       12901.781      373337.49      9.0445655    
     40200   20.1           300.18342     -110422.29      1241.6173      12773.524      12988.56       12765.856      12842.647      373337.49      9.0445655    
     40400   20.2           298.04773     -110418.74      1232.7836      12912.954      12805.071      12828.88       12848.968      373337.49      9.0445655    
     40600   20.3           297.32389     -110414.65      1229.7897      12913.841      12835.679      12895.065      12881.528      373337.49      9.0445655    
     40800   20.4           298.95089     -110418.85      1236.5193      12757.725      12910.556      12888.963      12852.415      373337.49      9.0445655    
     41000   20.5           299.58485     -110419.06      1239.1415      12816.623      12893.645      12818.925      12843.064      373337.49      9.0445655    
     41200   20.6           300.49773     -110410.6       1242.9173      12935.033      12975.269      12954.24       12954.847      373337.49      9.0445655    
     41400   20.7           302.37486     -110415.55      1250.6815      12907.746      12970.864      12938.282      12938.964      373337.49      9.0445655    
     41600   20.8           301.53517     -110423.09      1247.2084      12883.713      12828.466      12872.027      12861.402      373337.49      9.0445655    
     41800   20.9           301.14999     -110418.49      1245.6152      12912.583      12914.271      12849.959      12892.271      373337.49      9.0445655    
     42000   21             300.72054     -110406.81      1243.8389      13056.857      13026.331      12910.56       12997.916      373337.49      9.0445655    
     42200   21.1           301.17927     -110405.95      1245.7363      12966.233      13020.92       12996.957      12994.703      373337.49      9.0445655    
     42400   21.2           300.95253     -110413.05      1244.7985      12915.303      12901.188      12911.704      12909.398      373337.49      9.0445655    
     42600   21.3           300.2337      -110408.05      1241.8252      12947.224      13056.951      12886.646      12963.607      373337.49      9.0445655    
     42800   21.4           299.65726     -110413.54      1239.441       12935.27       12913.294      12852.649      12900.404      373337.49      9.0445655    
     43000   21.5           302.39075     -110414.66      1250.7472      12889.268      12967.989      12897.549      12918.269      373337.49      9.0445655    
     43200   21.6           299.87278     -110414.85      1240.3324      12739.262      12951.922      12987.737      12892.974      373337.49      9.0445655    
     43400   21.7           302.36573     -110424.07      1250.6437      12847.988      12887.931      12821.516      12852.478      373337.49      9.0445655    
     43600   21.8           300.93848     -110411.58      1244.7404      12827.171      13022.314      12955.03       12934.838      373337.49      9.0445655    
     43800   21.9           301.94499     -110399.84      1248.9035      12983.21       12973.684      13143.826      13033.573      373337.49      9.0445655    
     44000   22             301.53132     -110409.05      1247.1925      12929.9        13024.856      12891.232      12948.662      373337.49      9.0445655    
     44200   22.1           299.05237     -110405.43      1236.939       12923.371      12985.314      12975.437      12961.374      373337.49      9.0445655    
     44400   22.2           300.28703     -110429.79      1242.0458      12686.711      12767.629      12812.425      12755.589      373337.49      9.0445655    
     44600   22.3           296.43026     -110401.75      1226.0935      12996.358      12954.302      12994.505      12981.721      373337.49      9.0445655    
     44800   22.4           298.3075      -110405.9       1233.8581      12957.092      12993.185      12958.972      12969.75       373337.49      9.0445655    
     45000   22.5           299.57064     -110407.77      1239.0827      12988.56       12951.427      12924.989      12954.992      373337.49      9.0445655    
     45200   22.6           301.07593     -110420.98      1245.3089      12893.145      12880.521      12793.319      12855.662      373337.49      9.0445655    
     45400   22.7           297.8672      -110416.17      1232.037       12908.274      12808.187      12877.256      12864.572      373337.49      9.0445655    
     45600   22.8           296.78575     -110408.15      1227.5639      13012.161      12838.341      12860.026      12903.509      373337.49      9.0445655    
     45800   22.9           300.25285     -110421.23      1241.9044      12906.585      12808.112      12824.624      12846.44       373337.49      9.0445655    
     46000   23             300.09836     -110422.58      1241.2654      12780.006      12862.263      12799.88       12814.05       373337.49      9.0445655    
     46200   23.1           298.66753     -110418.39      1235.3473      12848.525      12933.833      12755.572      12845.977      373337.49      9.0445655    
     46400   23.2           299.79826     -110424.54      1240.0242      12864.861      12778.311      12818.015      12820.396      373337.49      9.0445655    
     46600   23.3           299.15953     -110414.71      1237.3823      12862.698      12970.89       12861.064      12898.217      373337.49      9.0445655    
     46800   23.4           299.9627      -110424.08      1240.7043      12866.53       12778.104      12760.243      12801.626      373337.49      9.0445655    
     47000   23.5           299.99316     -110415.61      1240.8303      12905.121      12886.359      12906.752      12899.411      373337.49      9.0445655    
     47200   23.6           299.86754     -110411.86      1240.3107      12951.209      12938.19       12843.351      12910.917      373337.49      9.0445655    
     47400   23.7           300.24403     -110412.96      1241.868       12905.553      12874.528      12952.74       12910.94       373337.49      9.0445655    
     47600   23.8           300.37471     -110413.09      1242.4085      12892.154      12895.535      12953.456      12913.715      373337.49      9.0445655    
     47800   23.9           301.26673     -110409.73      1246.098       12961.885      12981.794      12916.441      12953.373      373337.49      9.0445655    
     48000   24             297.84408     -110413.62      1231.9413      12886.929      12884.531      12865.197      12878.886      373337.49      9.0445655    
     48200   24.1           300.53373     -110416.86      1243.0662      12875.745      12854.164      12933.817      12887.909      373337.49      9.0445655    
     48400   24.2           298.75607     -110416.08      1235.7135      12911.038      12866.638      12793.652      12857.109      373337.49      9.0445655    
     48600   24.3           301.02592     -110418.86      1245.102       12913.64       12895.218      12756.472      12855.11       373337.49      9.0445655    
     48800   24.4           302.10035     -110419.41      1249.5461      12957.902      12892.986      12757.059      12869.315      373337.49      9.0445655    
     49000   24.5           299.14597     -110414.08      1237.3262      12904.537      12923.702      12901.516      12909.918      373337.49      9.0445655    
     49200   24.6           300.98586     -110412.62      1244.9363      12995.822      12871.817      12921.396      12929.678      373337.49      9.0445655    
     49400   24.7           303.01894     -110412.92      1253.3455      12926.874      12926.469      13069.561      12974.301      373337.49      9.0445655    
     49600   24.8           302.02975     -110410.95      1249.2541      13000.016      12908.796      12918.251      12942.354      373337.49      9.0445655    
     49800   24.9           299.90354     -110409.16      1240.4596      12897.671      12971.527      12998.207      12955.802      373337.49      9.0445655    
     50000   25             299.93673     -110415.58      1240.5969      12947.534      12821.371      12929.644      12899.517      373337.49      9.0445655    
Loop time of 41.3189 on 1 procs for 50000 steps with 32000 atoms

Performance: 52.276 ns/day, 0.459 hours/ns, 1210.101 timesteps/s, 38.723 Matom-step/s
99.8% CPU use with 1 MPI tasks x 1 OpenMP threads

MPI task timing breakdown:
Section |  min time  |  avg time  |  max time  |%varavg| %total
---------------------------------------------------------------
Pair    | 26.353     | 26.353     | 26.353     |   0.0 | 63.78
Neigh   | 0          | 0          | 0          |   0.0 |  0.00
Comm    | 11.05      | 11.05      | 11.05      |   0.0 | 26.74
Output  | 0.11785    | 0.11785    | 0.11785    |   0.0 |  0.29
Modify  | 1.8336     | 1.8336     | 1.8336     |   0.0 |  4.44
Other   |            | 1.965      |            |       |  4.76

Nlocal:          32000 ave       32000 max       32000 min
Histogram: 1 0 0 0 0 0 0 0 0 0
Nghost:          26825 ave       26825 max       26825 min
Histogram: 1 0 0 0 0 0 0 0 0 0
Neighs:      2.816e+06 ave   2.816e+06 max   2.816e+06 min
Histogram: 1 0 0 0 0 0 0 0 0 0

Total # of neighbors = 2816000
Ave neighs/atom = 88
Neighbor list builds = 0
Dangerous builds = 0
Total wall time: 0:00:43
