LAMMPS (10 Sep 2025)
KOKKOS mode with Kokkos version 4.6.2 is enabled
  using double precision
  using view layout = legacy
  will use up to 1 GPU(s) per node
  using 1 OpenMP thread(s) per MPI task
package kokkos
package kokkos newton on neigh half comm device
dimension       3
units           metal
atom_style      atomic
boundary        p p p

# --- Create FCC Cu lattice ---
#lattice         fcc 3.52
#region          box block 0 20 0 20 0 20
#create_box      1 box
#create_atoms    1 box
#mass            1 63.546

read_data       ../../../eos/0.83V/Cu-0.83V.lmp
Reading data file ...
  orthogonal box = (2.119744 2.119744 2.119744) to (68.280256 68.280256 68.280256)
  1 by 1 by 1 MPI processor grid
  reading atoms ...
  32000 atoms
  reading velocities ...
  32000 velocities
  read_data CPU = 0.158 seconds
#change_box     all x scale _scale_ y scale _scale_ z scale _scale_ remap

neighbor        2.0 bin
neigh_modify    delay 0 every 1 check yes

pair_style      eam/alloy
pair_coeff      * * Cu-EAM-Z1622old.eam.alloy Cu

shell           "mkdir -p dumps"

variable	thold equal 1000
variable	itemp equal 2*1000
variable	runNVE equal 50000
variable	tstep equal 0.0005
variable	ph string 1000K-0.83V

timestep        ${tstep}
timestep        0.0005
thermo          200
thermo_style    custom step time temp pe ke pxx pyy pzz press vol density
#thermo_modify	norm yes

dump        	RDUMP all custom 20000 dumps/${ph}-NV-1000K-*.xyz id type x y z
dump        	RDUMP all custom 20000 dumps/1000K-0.83V-NV-1000K-*.xyz id type x y z

#NV  1000K calculation
velocity 		all create ${itemp}  23796
velocity 		all create 2000  23796

fix 			LANG all langevin ${thold} ${thold} $(300.0*dt) 33948
fix 			LANG all langevin 1000 ${thold} $(300.0*dt) 33948
fix 			LANG all langevin 1000 1000 $(300.0*dt) 33948
fix 			LANG all langevin 1000 1000 0.14999999999999999445 33948
fix 			NVE all nve
run  			${runNVE}
run  			50000
Neighbor list info ...
  update: every = 1 steps, delay = 0 steps, check = yes
  max neighbors/atom: 2000, page size: 100000
  master list distance cutoff = 7.859375
  ghost atom cutoff = 7.859375
  binsize = 7.859375, bins = 9 9 9
  1 neighbor lists, perpetual/occasional/extra = 1 0 0
  (1) pair eam/alloy/kk, perpetual
      attributes: half, newton on, kokkos_device
      pair build: half/bin/newton/kk/device
      stencil: half/bin/3d
      bin: kk/device
Per MPI rank memory allocation (min/avg/max) = 11.5 | 11.5 | 11.5 Mbytes
   Step          Time           Temp          PotEng         KinEng          Pxx            Pyy            Pzz           Press          Volume        Density    
         0   0              2000          -97981.472      8272.3908      699476.55      699296.47      699303.19      699358.74      289598.68      11.659844    
       200   0.1            1051.1273     -94146.496      4347.6681      728072.83      729215.82      728630.84      728639.83      289598.68      11.659844    
       400   0.2            989.5407      -93916.338      4092.9337      730088.39      730942.66      730688.95      730573.33      289598.68      11.659844    
       600   0.3            1000.3631     -93956.144      4137.6973      730508.2       730125.45      730205.33      730279.66      289598.68      11.659844    
       800   0.4            997.66334     -93935.012      4126.5305      730779.03      730368.66      730559.01      730568.9       289598.68      11.659844    
      1000   0.5            995.79884     -93945.697      4118.8186      730796.02      730680.59      729733.55      730403.39      289598.68      11.659844    
      1200   0.6            1001.7802     -93927.195      4143.5585      731223.45      730523.6       730261.26      730669.44      289598.68      11.659844    
      1400   0.7            998.7677      -93944.089      4131.0983      730383.1       730284.43      730605.47      730424.34      289598.68      11.659844    
      1600   0.8            997.74342     -93946.888      4126.8617      730329.73      730360.62      730600.61      730430.32      289598.68      11.659844    
      1800   0.9            998.12276     -93960.244      4128.4308      729985.7       730539.41      730240.83      730255.31      289598.68      11.659844    
      2000   1              1008.8303     -93963.47       4172.7191      730524.13      730500.69      730054.97      730359.93      289598.68      11.659844    
      2200   1.1            1004.0437     -93956.985      4152.9211      730280.62      730685.22      730044.37      730336.74      289598.68      11.659844    
      2400   1.2            1001.4646     -93958.134      4142.2532      730726.24      730342.13      729985.56      730351.31      289598.68      11.659844    
      2600   1.3            999.59624     -93946.479      4134.5253      730644.07      730154.39      730769.75      730522.73      289598.68      11.659844    
      2800   1.4            1000.8972     -93942.91       4139.9064      730699         730136.98      730316.45      730384.14      289598.68      11.659844    
      3000   1.5            999.97545     -93937.005      4136.0938      730828.25      730589.38      730176.36      730531.33      289598.68      11.659844    
      3200   1.6            1000.5204     -93926.655      4138.348       730674.81      730830.42      730456.33      730653.85      289598.68      11.659844    
      3400   1.7            1006.6879     -93939.235      4163.8577      730940.43      730748.02      730138.67      730609.04      289598.68      11.659844    
      3600   1.8            1001.6884     -93944.751      4143.179       730260.21      730600.2       730502.54      730454.32      289598.68      11.659844    
      3800   1.9            998.92488     -93963.014      4131.7485      730664.66      729998.06      730159.05      730273.92      289598.68      11.659844    
      4000   2              1004.7468     -93926.249      4155.8291      730499.98      730069.53      731679.24      730749.58      289598.68      11.659844    
      4200   2.1            997.29024     -93920.831      4124.9873      730441.84      730652.66      730931.2       730675.23      289598.68      11.659844    
      4400   2.2            996.46608     -93948.032      4121.5784      729932.04      730694.65      730380.19      730335.63      289598.68      11.659844    
      4600   2.3            998.86822     -93968.679      4131.5141      730046.02      730121.93      730301.21      730156.38      289598.68      11.659844    
      4800   2.4            994.69103     -93972.833      4114.2364      729715.92      730361.92      730061.12      730046.32      289598.68      11.659844    
      5000   2.5            996.96339     -93962.544      4123.6354      730243.51      730513.47      729844.55      730200.51      289598.68      11.659844    
      5200   2.6            995.44096     -93938.437      4117.3383      730280.53      730527.57      730748.64      730518.91      289598.68      11.659844    
      5400   2.7            1004.0192     -93965.207      4152.8194      730825.16      729506.56      730453.32      730261.68      289598.68      11.659844    
      5600   2.8            999.80419     -93942.764      4135.3855      730819.94      730240.42      730444.44      730501.6       289598.68      11.659844    
      5800   2.9            1007.0634     -93949.287      4165.4108      730444.28      730565.73      730663.83      730557.95      289598.68      11.659844    
      6000   3              1010.1171     -93970.396      4178.0417      730705.87      730007.91      730186.57      730300.12      289598.68      11.659844    
      6200   3.1            1003.24       -93959.444      4149.5968      729603.64      730776.29      730667.61      730349.18      289598.68      11.659844    
      6400   3.2            1000.5536     -93963.763      4138.4851      730322.93      730284.69      730060.45      730222.69      289598.68      11.659844    
      6600   3.3            994.96975     -93930.514      4115.3893      730237.24      730543.58      730700.48      730493.77      289598.68      11.659844    
      6800   3.4            996.30642     -93946.281      4120.918       730403.05      730257.59      730521.14      730393.93      289598.68      11.659844    
      7000   3.5            1004.9705     -93981.942      4156.7542      729942.21      729945.05      730380.41      730089.22      289598.68      11.659844    
      7200   3.6            1000.1536     -93940.086      4136.8307      730372.26      730812.6       730387.99      730524.28      289598.68      11.659844    
      7400   3.7            993.34447     -93959.395      4108.6668      729760.61      730092.08      730735.33      730196.01      289598.68      11.659844    
      7600   3.8            998.41441     -93980.917      4129.6371      729468.63      730030.67      730504.88      730001.39      289598.68      11.659844    
      7800   3.9            995.78006     -93957.085      4118.7409      730651.74      730195.02      729909.34      730252.03      289598.68      11.659844    
      8000   4              991.85747     -93958.451      4102.5163      730149.03      730165.04      730257.79      730190.62      289598.68      11.659844    
      8200   4.1            1001.0866     -93950.6        4140.6899      730231.18      730333.15      730600.02      730388.12      289598.68      11.659844    
      8400   4.2            1001.6022     -93926.158      4142.8222      730328.09      730945.69      730719.13      730664.3       289598.68      11.659844    
      8600   4.3            1005.8214     -93950.64       4160.2738      729818.94      730686.84      730682.55      730396.11      289598.68      11.659844    
      8800   4.4            1013.3674     -93949.892      4191.4855      730505.31      730475.62      730660.39      730547.11      289598.68      11.659844    
      9000   4.5            1003.6671     -93946.257      4151.3634      730751.36      730205.02      730342.58      730432.99      289598.68      11.659844    
      9200   4.6            1004.7183     -93950.589      4155.7114      730483.35      730556.37      730484.22      730507.98      289598.68      11.659844    
      9400   4.7            1002.8126     -93964.272      4147.8287      730398.49      730731.52      729753.19      730294.4       289598.68      11.659844    
      9600   4.8            999.15124     -93995.443      4132.6847      730058.42      730025.55      729479.01      729854.33      289598.68      11.659844    
      9800   4.9            1000.5073     -93962.266      4138.2939      730771.57      730284.24      729798.25      730284.69      289598.68      11.659844    
     10000   5              997.76774     -93964.501      4126.9623      730449.24      730087         729948.66      730161.63      289598.68      11.659844    
     10200   5.1            997.8057      -93946.54       4127.1193      730263.31      730762.35      730041.33      730355.66      289598.68      11.659844    
     10400   5.2            1004.248      -93944.763      4153.766       730728.18      731232.03      729494.85      730485.02      289598.68      11.659844    
     10600   5.3            1004.5804     -93939.797      4155.1406      730728.39      730514.15      730304.42      730515.66      289598.68      11.659844    
     10800   5.4            1005.5058     -93929.446      4158.9683      730768.5       730995.35      730446.49      730736.78      289598.68      11.659844    
     11000   5.5            1002.1155     -93919.682      4144.9456      730731.07      730726.64      730640.45      730699.39      289598.68      11.659844    
     11200   5.6            1001.738      -93952.886      4143.3839      731085.4       730196.43      730002.65      730428.16      289598.68      11.659844    
     11400   5.7            1008.2445     -93983.12       4170.2962      729943.58      730162.94      730282.35      730129.62      289598.68      11.659844    
     11600   5.8            1000.8702     -93957.885      4139.7947      730700.55      729411.09      730830.45      730314.03      289598.68      11.659844    
     11800   5.9            998.66806     -93968.972      4130.6862      729919.95      730051.67      730465.31      730145.64      289598.68      11.659844    
     12000   6              1000.1118     -93974.571      4136.6579      730569.03      729623.61      729996.43      730063.02      289598.68      11.659844    
     12200   6.1            998.59739     -93953.112      4130.3939      730394.98      730013.64      730543.77      730317.46      289598.68      11.659844    
     12400   6.2            1000.4647     -93938.927      4138.1174      730057.29      730677.79      730758.43      730497.84      289598.68      11.659844    
     12600   6.3            999.5189      -93939.44       4134.2054      730217.28      730712.9       730545.33      730491.84      289598.68      11.659844    
     12800   6.4            989.73601     -93937.214      4093.7415      730195.34      730220.91      730656.95      730357.73      289598.68      11.659844    
     13000   6.5            1001.0359     -93969.578      4140.4799      730428.58      730440.44      729824.3       730231.11      289598.68      11.659844    
     13200   6.6            998.78674     -93958.374      4131.1771      730326.9       730483.19      729860.02      730223.37      289598.68      11.659844    
     13400   6.7            1001.184      -93976.095      4141.0928      730454.47      730664.49      729145.24      730088.07      289598.68      11.659844    
     13600   6.8            995.74077     -93965.544      4118.5784      730062.69      730010.24      730232.24      730101.72      289598.68      11.659844    
     13800   6.9            990.80599     -93977.264      4098.1672      729660.12      730365.23      729794.21      729939.85      289598.68      11.659844    
     14000   7              995.19323     -93963.097      4116.3136      730799.35      729542.06      730126.66      730156.02      289598.68      11.659844    
     14200   7.1            1001.1815     -93957.711      4141.0823      730409.79      730192.43      730265.86      730289.36      289598.68      11.659844    
     14400   7.2            999.13472     -93964.144      4132.6164      730576.74      730523         729869.39      730323.04      289598.68      11.659844    
     14600   7.3            992.74463     -93969.605      4106.1858      730182.06      730292.37      729718.29      730064.24      289598.68      11.659844    
     14800   7.4            997.43973     -93960.444      4125.6056      730198.22      729993.99      730659.9       730284.04      289598.68      11.659844    
     15000   7.5            998.13025     -93972.983      4128.4617      730311.24      729993         730117.62      730140.62      289598.68      11.659844    
     15200   7.6            995.369       -93962.507      4117.0406      730626.31      729860.78      730012.37      730166.49      289598.68      11.659844    
     15400   7.7            1002.9769     -93958.074      4148.5084      730220.98      730138.69      730634.11      730331.26      289598.68      11.659844    
     15600   7.8            1007.3067     -93927.928      4166.4175      731097.67      730420.06      730614.08      730710.6       289598.68      11.659844    
     15800   7.9            1002.6872     -93945.327      4147.31        730927.87      730335.07      730190.2       730484.38      289598.68      11.659844    
     16000   8              1002.6574     -93955.325      4147.1869      730393.29      730295.18      730571.94      730420.14      289598.68      11.659844    
     16200   8.1            997.36292     -93976.973      4125.2879      729864.02      730285.12      730227.96      730125.7       289598.68      11.659844    
     16400   8.2            1000.5133     -93963.519      4138.3186      730646.94      730126.71      730035.64      730269.76      289598.68      11.659844    
     16600   8.3            992.54727     -93995.863      4105.3694      730042.28      729790.07      729502.74      729778.37      289598.68      11.659844    
     16800   8.4            1000.6412     -93979.487      4138.8474      729475.65      730822.29      729995.01      730097.65      289598.68      11.659844    
     17000   8.5            995.76792     -93930.093      4118.6907      730052.2       731053.42      730275.65      730460.42      289598.68      11.659844    
     17200   8.6            1006.3227     -93958.125      4162.3472      730187.66      730829.04      730113.21      730376.64      289598.68      11.659844    
     17400   8.7            999.11557     -93962.538      4132.5372      730193.75      730378.13      730088.56      730220.15      289598.68      11.659844    
     17600   8.8            1005.6959     -93947.002      4159.7547      730435.36      731074.47      730043.65      730517.83      289598.68      11.659844    
     17800   8.9            997.63946     -93944.189      4126.4317      730194.75      730477.61      730551.91      730408.09      289598.68      11.659844    
     18000   9              994.82426     -93969.866      4114.7875      729828.87      730301.67      729931.86      730020.8       289598.68      11.659844    
     18200   9.1            997.05016     -93961.367      4123.9943      729882.82      730517.96      730294.46      730231.74      289598.68      11.659844    
     18400   9.2            995.23413     -93948.525      4116.4828      730517.9       730002.4       730523.55      730347.95      289598.68      11.659844    
     18600   9.3            1007.5176     -93958.023      4167.2896      730493.52      730560.49      730086.86      730380.29      289598.68      11.659844    
     18800   9.4            1006.1666     -93943.531      4161.7018      730400.63      730726.38      730350.33      730492.45      289598.68      11.659844    
     19000   9.5            1007.7023     -93932.561      4168.0535      730936.9       730712.58      730227.2       730625.56      289598.68      11.659844    
     19200   9.6            1004.6198     -93909.67       4155.3038      730827.07      731175.13      730694.41      730898.87      289598.68      11.659844    
     19400   9.7            1005.6409     -93924.728      4159.5271      730574.08      730688.97      731009.87      730757.64      289598.68      11.659844    
     19600   9.8            1000.3125     -93942.822      4137.4878      729811.16      730837         730815.78      730487.98      289598.68      11.659844    
     19800   9.9            1003.639      -93985.35       4151.247       729965.22      730181.83      730227.41      730124.82      289598.68      11.659844    
     20000   10             1003.7188     -93955.933      4151.5772      730684.2       729853.97      730808.24      730448.8       289598.68      11.659844    
     20200   10.1           993.04518     -93936.424      4107.4289      730415.16      730613.03      730523.62      730517.27      289598.68      11.659844    
     20400   10.2           987.02173     -93993.748      4082.5147      729219.47      730019.77      730012.41      729750.55      289598.68      11.659844    
     20600   10.3           994.82862     -93967.315      4114.8056      729805.79      729956         730519.37      730093.72      289598.68      11.659844    
     20800   10.4           990.12971     -93910.881      4095.3699      730352.93      730926.41      730747.36      730675.57      289598.68      11.659844    
     21000   10.5           1002.1109     -93971.901      4144.9265      730227.52      730047.4       730137         730137.31      289598.68      11.659844    
     21200   10.6           1000.9445     -93996.766      4140.1022      729613.01      730133.03      730059.51      729935.18      289598.68      11.659844    
     21400   10.7           992.81414     -93924.337      4106.4733      730755.8       730495.65      730302.25      730517.9       289598.68      11.659844    
     21600   10.8           1002.7757     -93985.568      4147.6764      730859.86      729364.48      729816.36      730013.57      289598.68      11.659844    
     21800   10.9           1001.3914     -93971.152      4141.9504      730462.93      729352.05      730481.2       730098.73      289598.68      11.659844    
     22000   11             996.44883     -93942.088      4121.5071      730675.79      730010.41      730281.42      730322.54      289598.68      11.659844    
     22200   11.1           1000.6294     -93966.993      4138.7988      729865.94      730544.5       730283.49      730231.31      289598.68      11.659844    
     22400   11.2           998.08747     -93981.753      4128.2848      730054.21      730213.54      729698.36      729988.7       289598.68      11.659844    
     22600   11.3           1000.2177     -93939.674      4137.0959      730809.55      730726.62      730014.62      730516.93      289598.68      11.659844    
     22800   11.4           992.00743     -93942.393      4103.1366      730186.32      730151.01      730640.01      730325.78      289598.68      11.659844    
     23000   11.5           996.25283     -93943.773      4120.6964      730281.34      730199.12      730652.75      730377.74      289598.68      11.659844    
     23200   11.6           995.3343      -93947.034      4116.8971      729982.6       730472.08      730391.64      730282.1       289598.68      11.659844    
     23400   11.7           993.09873     -93928.784      4107.6504      730714.12      730310.65      730560.94      730528.57      289598.68      11.659844    
     23600   11.8           996.27141     -93959.463      4120.7732      730216.72      729957.92      730416.63      730197.09      289598.68      11.659844    
     23800   11.9           995.57821     -93945.49       4117.906       730115.26      730089.52      730948.64      730384.47      289598.68      11.659844    
     24000   12             997.3926      -93937.201      4125.4106      730542.84      730531.32      730324.98      730466.38      289598.68      11.659844    
     24200   12.1           1009.2511     -93958.631      4174.4599      730064.01      731033.15      730148.01      730415.06      289598.68      11.659844    
     24400   12.2           1005.2951     -93946.48       4158.097       731019.48      730793.95      729859.22      730557.55      289598.68      11.659844    
     24600   12.3           999.46787     -93901.962      4133.9944      731118.84      731001.29      730784.53      730968.22      289598.68      11.659844    
     24800   12.4           1005.7318     -93961.465      4159.9033      730552.84      730404.33      730059.28      730338.82      289598.68      11.659844    
     25000   12.5           1006.8626     -93918.758      4164.5804      730554.99      731489.77      730327.96      730790.91      289598.68      11.659844    
     25200   12.6           1007.7395     -93934.738      4168.2075      730492.77      730685.52      730729.36      730635.88      289598.68      11.659844    
     25400   12.7           996.37826     -93943.398      4121.2151      730350.24      730608.05      730360.86      730439.72      289598.68      11.659844    
     25600   12.8           996.63126     -93945.741      4122.2616      730019.17      730520.06      730456.84      730332.02      289598.68      11.659844    
     25800   12.9           1005.4567     -94001.471      4158.7653      729960.09      729106.49      730698.4       729921.66      289598.68      11.659844    
     26000   13             993.90045     -93942.055      4110.9665      730106.52      729901.06      730883.27      730296.95      289598.68      11.659844    
     26200   13.1           993.62975     -93944.353      4109.8468      729891.13      730569.42      730574.54      730345.03      289598.68      11.659844    
     26400   13.2           997.39006     -93961.419      4125.4002      730204.22      730550.13      729790.01      730181.45      289598.68      11.659844    
     26600   13.3           996.83493     -93961.619      4123.104       730326.11      730186.1       730108.98      730207.06      289598.68      11.659844    
     26800   13.4           995.38069     -93966.883      4117.089       730265.1       729875.76      730235.69      730125.51      289598.68      11.659844    
     27000   13.5           1002.3405     -93962.055      4145.8762      730705.32      730222.69      730021.83      730316.61      289598.68      11.659844    
     27200   13.6           995.73585     -93963.987      4118.558       730448.3       730013.21      729851.78      730104.43      289598.68      11.659844    
     27400   13.7           995.21852     -93977.181      4116.4183      729960.11      730217.07      729793.05      729990.08      289598.68      11.659844    
     27600   13.8           998.93034     -93949.316      4131.7711      730580.55      729656.7       730658.3       730298.52      289598.68      11.659844    
     27800   13.9           994.37717     -93943.971      4112.9382      730246.84      730193.88      730564.06      730334.93      289598.68      11.659844    
     28000   14             995.4177      -93932.836      4117.2421      730752.86      730094.48      730861.51      730569.62      289598.68      11.659844    
     28200   14.1           1001.0282     -93962.225      4140.4482      729817.6       730487.39      730310.7       730205.23      289598.68      11.659844    
     28400   14.2           994.08793     -93918.433      4111.7419      730481.27      731120.18      730618.27      730739.91      289598.68      11.659844    
     28600   14.3           1006.9986     -93960.88       4165.1428      730169.5       731019.78      730160.33      730449.87      289598.68      11.659844    
     28800   14.4           1000.8272     -93925.124      4139.6168      730899.32      730381.09      730920.79      730733.74      289598.68      11.659844    
     29000   14.5           998.89637     -93918.359      4131.6305      730707.83      730543.94      730942.61      730731.46      289598.68      11.659844    
     29200   14.6           1000.6568     -93944.751      4138.9122      730856.92      729802.22      730641.51      730433.55      289598.68      11.659844    
     29400   14.7           999.83912     -93968.773      4135.53        730253.15      730302.79      730084.95      730213.63      289598.68      11.659844    
     29600   14.8           996.58273     -93976.456      4122.0609      729828.23      729921.3       730246.41      729998.65      289598.68      11.659844    
     29800   14.9           995.37193     -93960.402      4117.0528      730347.4       730029.06      730174.38      730183.61      289598.68      11.659844    
     30000   15             1002.3646     -93966.995      4145.976       730004.04      730095.16      730519.37      730206.19      289598.68      11.659844    
     30200   15.1           998.73574     -93957.81       4130.9662      729777.7       730160.02      731106.19      730347.97      289598.68      11.659844    
     30400   15.2           991.75446     -93981.868      4102.0902      730159.26      729832.72      729765.5       729919.16      289598.68      11.659844    
     30600   15.3           1002.4174     -93983.321      4146.1942      729837.43      730211.37      729952.6       730000.47      289598.68      11.659844    
     30800   15.4           992.46814     -93975.907      4105.0421      729891.12      730012.97      730159.02      730021.04      289598.68      11.659844    
     31000   15.5           996.16155     -93945.39       4120.3188      730159.9       730287.92      730778.7       730408.84      289598.68      11.659844    
     31200   15.6           998.52313     -93944.966      4130.0868      730446.89      730285.77      730477.83      730403.49      289598.68      11.659844    
     31400   15.7           1001.5948     -93950.768      4142.7919      730328.6       730619.12      730334.28      730427.34      289598.68      11.659844    
     31600   15.8           996.60373     -93944.887      4122.1477      730196.26      730657.96      730271.9       730375.37      289598.68      11.659844    
     31800   15.9           1004.5437     -93969.233      4154.9889      730162.29      730443.97      730116.38      730240.88      289598.68      11.659844    
     32000   16             1005.7958     -93948.908      4160.168       730384.58      730517.29      730620.21      730507.36      289598.68      11.659844    
     32200   16.1           1003.1873     -93946.812      4149.3787      729930.53      730937.64      730239.24      730369.14      289598.68      11.659844    
     32400   16.2           994.87783     -93942.768      4115.0091      730671.99      730099.22      730409.5       730393.57      289598.68      11.659844    
     32600   16.3           995.57601     -93966.508      4117.8969      729937.35      730395.43      730178.59      730170.46      289598.68      11.659844    
     32800   16.4           997.17617     -93948.369      4124.5155      730344.06      730693.12      730157.93      730398.37      289598.68      11.659844    
     33000   16.5           1003.0087     -93977.833      4148.6398      730254.54      730465.31      729757.08      730158.98      289598.68      11.659844    
     33200   16.6           995.91375     -93968.18       4119.2939      730522.21      730230.71      729737.22      730163.38      289598.68      11.659844    
     33400   16.7           1001.4301     -93966.694      4142.1107      730073.23      730033.95      730608.49      730238.56      289598.68      11.659844    
     33600   16.8           996.18828     -93957.97       4120.4293      730133.7       730311.55      730410.63      730285.29      289598.68      11.659844    
     33800   16.9           995.183       -93953.019      4116.2713      729989.94      730747.09      730459.72      730398.92      289598.68      11.659844    
     34000   17             996.88454     -93946.219      4123.3092      730371.32      729932.72      731004.17      730436.07      289598.68      11.659844    
     34200   17.1           993.97151     -93941.579      4111.2604      730465.28      730245.69      730644.74      730451.91      289598.68      11.659844    
     34400   17.2           1002.7752     -93927.685      4147.6743      731466.47      730449.81      730086.95      730667.74      289598.68      11.659844    
     34600   17.3           1007.2395     -93944.717      4166.1393      730850.52      730723.56      730174.26      730582.78      289598.68      11.659844    
     34800   17.4           1009.2709     -93966.862      4174.5417      731041.7       730015.11      730105.52      730387.44      289598.68      11.659844    
     35000   17.5           1005.4101     -93941.525      4158.5727      730896.15      730367.14      730522.2       730595.16      289598.68      11.659844    
     35200   17.6           1002.6705     -93937.212      4147.241       729915.33      730797.68      731134.71      730615.91      289598.68      11.659844    
     35400   17.7           998.53252     -93942.999      4130.1256      730420.54      730522.84      729992.87      730312.08      289598.68      11.659844    
     35600   17.8           1001.9933     -93954.795      4144.44        730059.94      730635.93      730367.99      730354.62      289598.68      11.659844    
     35800   17.9           1004.9365     -93960.213      4156.6139      730802.46      730059.19      730475.85      730445.83      289598.68      11.659844    
     36000   18             995.93097     -93935.185      4119.3651      730202.63      730873.54      730357.25      730477.81      289598.68      11.659844    
     36200   18.1           991.88273     -93969.396      4102.6207      729925.76      729883.24      730275.73      730028.25      289598.68      11.659844    
     36400   18.2           997.72163     -93959.24       4126.7716      730255.19      730252.81      730479.48      730329.16      289598.68      11.659844    
     36600   18.3           999.3575      -93955.439      4133.5379      730054.57      730128.76      730762.34      730315.22      289598.68      11.659844    
     36800   18.4           1002.4871     -93940.021      4146.4823      730347.29      730551.82      730715.84      730538.32      289598.68      11.659844    
     37000   18.5           1003.2767     -93939.642      4149.7483      730438.69      730535.85      730634.5       730536.35      289598.68      11.659844    
     37200   18.6           1008.1857     -93957.045      4170.0532      730115.43      730443.69      730710.63      730423.25      289598.68      11.659844    
     37400   18.7           1007.7209     -93961.188      4168.1304      730623.3       730122.75      730419.47      730388.51      289598.68      11.659844    
     37600   18.8           1006.8003     -93972.569      4164.3228      729653.78      729909.34      730901.98      730155.03      289598.68      11.659844    
     37800   18.9           1004.6493     -93955.431      4155.4257      729938.41      730436.43      730491.2       730288.68      289598.68      11.659844    
     38000   19             1002.2536     -93960.69       4145.5167      730708.31      729702.45      730471.35      730294.04      289598.68      11.659844    
     38200   19.1           1002.1263     -93965.318      4144.9903      729928.98      730222.5       730593.87      730248.45      289598.68      11.659844    
     38400   19.2           1005.7702     -93948.896      4160.062       730763.94      730405.08      730281.42      730483.48      289598.68      11.659844    
     38600   19.3           1004.1659     -93938.262      4153.4265      730652.77      730434.81      730279.23      730455.6       289598.68      11.659844    
     38800   19.4           996.62654     -93938.667      4122.2421      730675.37      730247.15      730446.8       730456.44      289598.68      11.659844    
     39000   19.5           1002.3409     -93963.213      4145.8779      730166.43      730362.86      730304.41      730277.9       289598.68      11.659844    
     39200   19.6           1000.3532     -93947.002      4137.6561      730586.87      730696.89      730051.46      730445.07      289598.68      11.659844    
     39400   19.7           1002.239      -93955.954      4145.4563      730398.76      730285.74      730423.51      730369.34      289598.68      11.659844    
     39600   19.8           999.46841     -93961.057      4133.9966      730122.01      730451.07      730057.36      730210.15      289598.68      11.659844    
     39800   19.9           1000.2803     -93934.986      4137.3548      730391.13      730340.94      731010.73      730580.93      289598.68      11.659844    
     40000   20             998.40353     -93961.635      4129.5921      730128.24      730111.98      730310.7       730183.64      289598.68      11.659844    
     40200   20.1           1005.405      -93968.704      4158.5516      729899.74      730424.16      730372.96      730232.29      289598.68      11.659844    
     40400   20.2           1006.1331     -93966.33       4161.563       730217.32      730361.59      730207.61      730262.17      289598.68      11.659844    
     40600   20.3           1003.4798     -93991.94       4150.5884      729941.53      730358.91      729467.56      729922.67      289598.68      11.659844    
     40800   20.4           995.07258     -93993.427      4115.8146      730096.43      729740.66      729640.41      729825.83      289598.68      11.659844    
     41000   20.5           994.52898     -93969.789      4113.5662      730193.46      730214.99      729856.27      730088.24      289598.68      11.659844    
     41200   20.6           996.32148     -93952.365      4120.9803      729906.45      730828.14      730224.63      730319.74      289598.68      11.659844    
     41400   20.7           995.20266     -93944.75       4116.3526      730224.73      730073.79      730763.8       730354.1       289598.68      11.659844    
     41600   20.8           991.46793     -93968.16       4100.9051      729650.35      730447.12      729922.77      730006.75      289598.68      11.659844    
     41800   20.9           998.11696     -93959.417      4128.4067      729805.69      730028.41      730704.5       730179.53      289598.68      11.659844    
     42000   21             999.04075     -93943.765      4132.2278      730403.23      730414.84      730331.89      730383.32      289598.68      11.659844    
     42200   21.1           993.72928     -93952.545      4110.2585      730452.88      730040.13      730268.87      730253.96      289598.68      11.659844    
     42400   21.2           1002.8164     -93992.059      4147.8445      729808.73      730024.69      730231.08      730021.5       289598.68      11.659844    
     42600   21.3           993.33512     -93953.497      4108.6281      730055.31      730784.62      729908.64      730249.52      289598.68      11.659844    
     42800   21.4           1003.8403     -93989.076      4152.0796      729862.66      730132.69      730025.02      730006.79      289598.68      11.659844    
     43000   21.5           994.67826     -93960.116      4114.1836      730086.33      730779.53      729675.31      730180.39      289598.68      11.659844    
     43200   21.6           993.27197     -93938.858      4108.3669      730529.49      730393.37      730347.84      730423.56      289598.68      11.659844    
     43400   21.7           1002.2668     -93939.545      4145.5715      730513.04      730713.56      730318.12      730514.9       289598.68      11.659844    
     43600   21.8           1001.901      -93931.212      4144.0584      730398.06      730696.43      730701.99      730598.82      289598.68      11.659844    
     43800   21.9           1003.6812     -93918.931      4151.4215      730654.92      730981.06      730655.78      730763.92      289598.68      11.659844    
     44000   22             1003.6928     -93974.996      4151.4697      730427.7       730503.83      729660.01      730197.18      289598.68      11.659844    
     44200   22.1           996.69788     -93958.44       4122.5372      730133.88      730223.14      730289.3       730215.44      289598.68      11.659844    
     44400   22.2           995.75086     -93961.205      4118.6201      729798.29      730714.82      730046.29      730186.46      289598.68      11.659844    
     44600   22.3           1003.0089     -93979.878      4148.6407      729587.53      730416.46      730341.79      730115.26      289598.68      11.659844    
     44800   22.4           1000.2047     -93934.212      4137.0421      730351.18      730944.43      730424.78      730573.46      289598.68      11.659844    
     45000   22.5           1000.7742     -93958.134      4139.3976      730446.62      730378.99      730264.51      730363.37      289598.68      11.659844    
     45200   22.6           998.3249      -93947.397      4129.2669      730774.78      730749.98      729563         730362.58      289598.68      11.659844    
     45400   22.7           995.34937     -93957.652      4116.9595      730366.28      729878.31      730553         730265.86      289598.68      11.659844    
     45600   22.8           1004.6299     -93985.326      4155.3455      729806.36      730079.08      730500.75      730128.73      289598.68      11.659844    
     45800   22.9           1003.1279     -93976.908      4149.1331      729769.91      730619.94      730061.68      730150.51      289598.68      11.659844    
     46000   23             996.22675     -93943.16       4120.5885      729777.75      731045.96      730558.21      730460.64      289598.68      11.659844    
     46200   23.1           997.66577     -93976.157      4126.5406      729789.78      730009.4       730227.21      730008.79      289598.68      11.659844    
     46400   23.2           996.15682     -93964.174      4120.2992      729965.83      730161.83      730314.97      730147.55      289598.68      11.659844    
     46600   23.3           990.28442     -93966.903      4096.0098      729652.13      730588.16      729931.78      730057.36      289598.68      11.659844    
     46800   23.4           996.03012     -93987.847      4119.7752      730272.18      729999.06      729533.46      729934.9       289598.68      11.659844    
     47000   23.5           996.20425     -93954.662      4120.4954      730554.13      730124.8       730258.01      730312.31      289598.68      11.659844    
     47200   23.6           995.50621     -93962.206      4117.6082      730389.7       730317         729684.42      730130.37      289598.68      11.659844    
     47400   23.7           996.53613     -93958.358      4121.8681      730327.21      729781.01      730541.99      730216.74      289598.68      11.659844    
     47600   23.8           1006.8549     -93974.514      4164.5487      730766.32      729938.86      729958.19      730221.12      289598.68      11.659844    
     47800   23.9           1001.4851     -93968.369      4142.3379      730643.98      729957.2       730079.18      730226.79      289598.68      11.659844    
     48000   24             1001.8591     -93956.409      4143.885       730032.6       730336.1       730461.69      730276.8       289598.68      11.659844    
     48200   24.1           1005.3797     -93956.633      4158.4471      730729.27      730344.96      730216.24      730430.16      289598.68      11.659844    
     48400   24.2           995.95892     -93966.303      4119.4807      729995.44      730415.36      730127.85      730179.55      289598.68      11.659844    
     48600   24.3           991.55989     -93925.734      4101.2854      730595.77      730436.26      730791.68      730607.9       289598.68      11.659844    
     48800   24.4           994.37132     -93945.522      4112.914       730493.67      730374.72      730270.2       730379.53      289598.68      11.659844    
     49000   24.5           1003.4472     -93950.909      4150.4535      729943.37      731010.47      730415.39      730456.41      289598.68      11.659844    
     49200   24.6           1004.5015     -93954.655      4154.8143      730668.24      729792.33      730675.77      730378.78      289598.68      11.659844    
     49400   24.7           1002.2508     -93943.984      4145.5052      730654.04      730449.53      730520.68      730541.42      289598.68      11.659844    
     49600   24.8           998.83578     -93953.95       4131.3799      730552.86      730050.52      730381.01      730328.13      289598.68      11.659844    
     49800   24.9           996.20975     -93954.142      4120.5182      729930.1       731072.99      730034         730345.7       289598.68      11.659844    
     50000   25             998.51319     -93954.935      4130.0457      730175.86      730329         730372.33      730292.4       289598.68      11.659844    
Loop time of 49.6326 on 1 procs for 50000 steps with 32000 atoms

Performance: 43.520 ns/day, 0.551 hours/ns, 1007.402 timesteps/s, 32.237 Matom-step/s
99.7% CPU use with 1 MPI tasks x 1 OpenMP threads

MPI task timing breakdown:
Section |  min time  |  avg time  |  max time  |%varavg| %total
---------------------------------------------------------------
Pair    | 30.174     | 30.174     | 30.174     |   0.0 | 60.79
Neigh   | 0          | 0          | 0          |   0.0 |  0.00
Comm    | 15.305     | 15.305     | 15.305     |   0.0 | 30.84
Output  | 0.11707    | 0.11707    | 0.11707    |   0.0 |  0.24
Modify  | 2.1005     | 2.1005     | 2.1005     |   0.0 |  4.23
Other   |            | 1.937      |            |       |  3.90

Nlocal:          32000 ave       32000 max       32000 min
Histogram: 1 0 0 0 0 0 0 0 0 0
Nghost:          26825 ave       26825 max       26825 min
Histogram: 1 0 0 0 0 0 0 0 0 0
Neighs:      3.584e+06 ave   3.584e+06 max   3.584e+06 min
Histogram: 1 0 0 0 0 0 0 0 0 0

Total # of neighbors = 3584000
Ave neighs/atom = 112
Neighbor list builds = 0
Dangerous builds = 0
Total wall time: 0:00:52
