LAMMPS (10 Sep 2025)
KOKKOS mode with Kokkos version 4.6.2 is enabled
  using double precision
  using view layout = legacy
  will use up to 1 GPU(s) per node
  using 1 OpenMP thread(s) per MPI task
package kokkos
package kokkos newton on neigh half comm device
dimension       3
units           metal
atom_style      atomic
boundary        p p p

# --- Create FCC Cu lattice ---
#lattice         fcc 3.52
#region          box block 0 20 0 20 0 20
#create_box      1 box
#create_atoms    1 box
#mass            1 63.546

read_data       ../../../eos/0.84V/Cu-0.84V.lmp
Reading data file ...
  orthogonal box = (1.9874272 1.9874272 1.9874272) to (68.412573 68.412573 68.412573)
  1 by 1 by 1 MPI processor grid
  reading atoms ...
  32000 atoms
  reading velocities ...
  32000 velocities
  read_data CPU = 0.149 seconds
#change_box     all x scale _scale_ y scale _scale_ z scale _scale_ remap

neighbor        2.0 bin
neigh_modify    delay 0 every 1 check yes

pair_style      eam/alloy
pair_coeff      * * Cu-EAM-Z1622old.eam.alloy Cu

shell           "mkdir -p dumps"

variable	thold equal 1000
variable	itemp equal 2*1000
variable	runNVE equal 50000
variable	tstep equal 0.0005
variable	ph string 1000K-0.84V

timestep        ${tstep}
timestep        0.0005
thermo          200
thermo_style    custom step time temp pe ke pxx pyy pzz press vol density
#thermo_modify	norm yes

dump        	RDUMP all custom 20000 dumps/${ph}-NV-1000K-*.xyz id type x y z
dump        	RDUMP all custom 20000 dumps/1000K-0.84V-NV-1000K-*.xyz id type x y z

#NV  1000K calculation
velocity 		all create ${itemp}  23796
velocity 		all create 2000  23796

fix 			LANG all langevin ${thold} ${thold} $(300.0*dt) 33948
fix 			LANG all langevin 1000 ${thold} $(300.0*dt) 33948
fix 			LANG all langevin 1000 1000 $(300.0*dt) 33948
fix 			LANG all langevin 1000 1000 0.14999999999999999445 33948
fix 			NVE all nve
run  			${runNVE}
run  			50000
Neighbor list info ...
  update: every = 1 steps, delay = 0 steps, check = yes
  max neighbors/atom: 2000, page size: 100000
  master list distance cutoff = 7.859375
  ghost atom cutoff = 7.859375
  binsize = 7.859375, bins = 9 9 9
  1 neighbor lists, perpetual/occasional/extra = 1 0 0
  (1) pair eam/alloy/kk, perpetual
      attributes: half, newton on, kokkos_device
      pair build: half/bin/newton/kk/device
      stencil: half/bin/3d
      bin: kk/device
Per MPI rank memory allocation (min/avg/max) = 11.5 | 11.5 | 11.5 Mbytes
   Step          Time           Temp          PotEng         KinEng          Pxx            Pyy            Pzz           Press          Volume        Density    
         0   0              2000          -99382.918      8272.3908      649086.81      648908.88      648915.51      648970.4       293087.67      11.521042    
       200   0.1            1066.5089     -95604.691      4411.289       675991.03      676564.88      676484.31      676346.74      293087.67      11.521042    
       400   0.2            998.98907     -95334.086      4132.014       678717.61      678569.29      678749.28      678678.72      293087.67      11.521042    
       600   0.3            1003.7314     -95381.372      4151.6293      678076.92      678457.75      678265.64      678266.77      293087.67      11.521042    
       800   0.4            1000.5584     -95366.503      4138.5052      678636.82      678381.57      678455.04      678491.14      293087.67      11.521042    
      1000   0.5            995.5877      -95368.719      4117.9453      678204.02      678461.65      678449.34      678371.67      293087.67      11.521042    
      1200   0.6            1002.3229     -95335.997      4145.8033      678729.2       679124.49      678586.77      678813.49      293087.67      11.521042    
      1400   0.7            1001.2775     -95362.934      4141.4793      678521.73      678609.4       678437.88      678523.01      293087.67      11.521042    
      1600   0.8            997.9337      -95335.173      4127.6488      678710.85      678409.59      678971.42      678697.28      293087.67      11.521042    
      1800   0.9            998.28231     -95354.882      4129.0907      678745.73      678491.16      678711.57      678649.49      293087.67      11.521042    
      2000   1              1010.2777     -95352.8        4178.7061      678722.52      678866.47      678425.82      678671.6       293087.67      11.521042    
      2200   1.1            1003.8789     -95321.81       4152.2391      679238.85      678756.16      678747         678914         293087.67      11.521042    
      2400   1.2            997.77249     -95333.849      4126.982       678828.87      678742.42      678637.82      678736.37      293087.67      11.521042    
      2600   1.3            999.56353     -95358.444      4134.3901      678782.73      678117.6       678585.84      678495.39      293087.67      11.521042    
      2800   1.4            1005.1617     -95347.826      4157.5451      678913.7       678483.4       678529.35      678642.15      293087.67      11.521042    
      3000   1.5            1005.4831     -95345.059      4158.8747      679349.34      678786.29      678210.6       678782.07      293087.67      11.521042    
      3200   1.6            1007.5422     -95349.129      4167.3913      678634         678599.59      678763.68      678665.76      293087.67      11.521042    
      3400   1.7            1004.4246     -95345.448      4154.4963      679088.62      679004.24      677900.61      678664.49      293087.67      11.521042    
      3600   1.8            1000.0799     -95367.06       4136.5257      678653.65      678145.94      678500.41      678433.33      293087.67      11.521042    
      3800   1.9            994.70907     -95363.13       4114.311       678592.38      678170.62      678446.72      678403.24      293087.67      11.521042    
      4000   2              998.01707     -95337.25       4127.9936      678718.01      678223.11      679176.79      678705.97      293087.67      11.521042    
      4200   2.1            998.91606     -95339.247      4131.712       678799.43      678182.11      678906.95      678629.49      293087.67      11.521042    
      4400   2.2            1005.0431     -95367.682      4157.0546      678658.52      678391.78      678425.49      678491.93      293087.67      11.521042    
      4600   2.3            1009.9224     -95387.517      4177.2365      678721.9       678041.43      678192.03      678318.46      293087.67      11.521042    
      4800   2.4            1002.4106     -95374.291      4146.166       678701.63      678110.08      678224.8       678345.5       293087.67      11.521042    
      5000   2.5            1000.3785     -95354.876      4137.7608      678696.07      678528.53      678450.57      678558.39      293087.67      11.521042    
      5200   2.6            993.60159     -95329.591      4109.7303      678469.49      678608.17      679027.91      678701.86      293087.67      11.521042    
      5400   2.7            1004.6278     -95363.188      4155.337       678319.63      678607.26      678609.34      678512.08      293087.67      11.521042    
      5600   2.8            1005.9657     -95353.71       4160.8705      678677.93      678760.41      678536.81      678658.38      293087.67      11.521042    
      5800   2.9            1009.1746     -95321.677      4174.1435      679145.32      679234.69      678710.21      679030.07      293087.67      11.521042    
      6000   3              1009.5265     -95365.616      4175.5987      678769.43      678140         678888.07      678599.17      293087.67      11.521042    
      6200   3.1            1003.0629     -95341.335      4148.8643      678259.81      678982.18      679238.26      678826.75      293087.67      11.521042    
      6400   3.2            1005.6559     -95342.418      4159.5892      678617.85      679311.29      678398.31      678775.81      293087.67      11.521042    
      6600   3.3            998.44867     -95339.124      4129.7788      678151.99      678904.55      678867.75      678641.43      293087.67      11.521042    
      6800   3.4            992.99223     -95368.829      4107.2099      678318.92      678295.53      678377.71      678330.72      293087.67      11.521042    
      7000   3.5            995.3256      -95379.78       4116.8611      677989.12      678413.34      678403.42      678268.62      293087.67      11.521042    
      7200   3.6            996.80107     -95348.314      4122.964       678257.7       678719.8       678776.17      678584.56      293087.67      11.521042    
      7400   3.7            995.35543     -95370.277      4116.9845      677993.94      678032.53      678984.44      678336.97      293087.67      11.521042    
      7600   3.8            1001.6208     -95383.566      4142.8992      677679.1       678287.78      678849.53      678272.14      293087.67      11.521042    
      7800   3.9            996.74256     -95336.996      4122.722       678540.39      678656.22      678780.32      678658.98      293087.67      11.521042    
      8000   4              993.60752     -95353.684      4109.7549      677531.79      678928.44      678891.4       678450.55      293087.67      11.521042    
      8200   4.1            999.87982     -95368.401      4135.6983      678418.75      678241.85      678474.07      678378.22      293087.67      11.521042    
      8400   4.2            1005.4285     -95361.806      4158.6488      678500.99      678447.51      678437.58      678462.03      293087.67      11.521042    
      8600   4.3            999.36913     -95355.472      4133.586       678201.25      678729.18      678551.99      678494.14      293087.67      11.521042    
      8800   4.4            1010.893      -95364.708      4181.2511      679045.17      678056.44      678856.09      678652.57      293087.67      11.521042    
      9000   4.5            1000.8078     -95367.302      4139.5365      678614.92      678300.76      678441.63      678452.44      293087.67      11.521042    
      9200   4.6            1002.3583     -95361.4        4145.9499      678539.9       678395.46      678756.34      678563.9       293087.67      11.521042    
      9400   4.7            1000.6854     -95386.415      4139.0301      678734.96      678552.21      677400.2       678229.12      293087.67      11.521042    
      9600   4.8            993.5919      -95389.598      4109.6902      678398.37      678242.49      677505.18      678048.68      293087.67      11.521042    
      9800   4.9            992.95522     -95399.622      4107.0568      678210.21      677894.14      677783.98      677962.77      293087.67      11.521042    
     10000   5              991.77761     -95365.292      4102.186       678350.87      678174.03      678111.39      678212.1       293087.67      11.521042    
     10200   5.1            1002.0128     -95372.034      4144.5209      678271.69      678696.76      678188.29      678385.58      293087.67      11.521042    
     10400   5.2            1002.3763     -95342.691      4146.0242      678343.05      679229.85      678252.8       678608.57      293087.67      11.521042    
     10600   5.3            1003.802      -95342.92       4151.9212      678882.36      678783.55      678465.59      678710.5       293087.67      11.521042    
     10800   5.4            1008.0344     -95371.26       4169.4272      678320.08      678729.8       678259.25      678436.38      293087.67      11.521042    
     11000   5.5            1002.6875     -95349.815      4147.3114      678234.18      679234.16      678309.08      678592.47      293087.67      11.521042    
     11200   5.6            996.83557     -95337.042      4123.1067      678762.56      678918.94      678582.75      678754.75      293087.67      11.521042    
     11400   5.7            995.987       -95371.012      4119.5968      678692.38      678173.53      678013.8       678293.24      293087.67      11.521042    
     11600   5.8            1004.3828     -95390.851      4154.3234      677898.34      677862.27      678764.9       678175.17      293087.67      11.521042    
     11800   5.9            996.51933     -95390.051      4121.7987      677862         678285.19      678286.68      678144.62      293087.67      11.521042    
     12000   6              994.77735     -95351.331      4114.5935      678463.07      678509.07      678367.11      678446.42      293087.67      11.521042    
     12200   6.1            993.59732     -95325.669      4109.7127      678650.7       678605.93      678916.65      678724.42      293087.67      11.521042    
     12400   6.2            998.74605     -95327.644      4131.0088      678452.34      678911.81      679046.45      678803.54      293087.67      11.521042    
     12600   6.3            1000.9247     -95348.502      4140.0202      678662.65      678390.86      678604.37      678552.63      293087.67      11.521042    
     12800   6.4            996.31353     -95352.159      4120.9474      678404.94      678253.61      678922.52      678527.02      293087.67      11.521042    
     13000   6.5            1007.2982     -95385.487      4166.3823      678442.9       678584.9       678022.92      678350.24      293087.67      11.521042    
     13200   6.6            999.22918     -95349.749      4133.0071      678545.32      678876.52      678200.66      678540.83      293087.67      11.521042    
     13400   6.7            997.64767     -95348.812      4126.4657      678230.97      679328.97      677873.83      678477.92      293087.67      11.521042    
     13600   6.8            995.65396     -95349.142      4118.2193      678299.85      678846.37      678575.38      678573.87      293087.67      11.521042    
     13800   6.9            1002.9166     -95377.102      4148.2591      678764.62      678615.82      677885.27      678421.91      293087.67      11.521042    
     14000   7              993.60088     -95349.97       4109.7274      678837.11      678007.64      678614.11      678486.29      293087.67      11.521042    
     14200   7.1            997.68211     -95377.911      4126.6081      678447.23      678827.69      677532.76      678269.23      293087.67      11.521042    
     14400   7.2            998.73725     -95385.919      4130.9724      678562.08      678272.66      677940.45      678258.4       293087.67      11.521042    
     14600   7.3            993.95645     -95383.27       4111.1981      677923.44      678507.75      678015.94      678149.04      293087.67      11.521042    
     14800   7.4            993.34262     -95346.894      4108.6592      678546.82      678839.31      678280.31      678555.48      293087.67      11.521042    
     15000   7.5            995.30476     -95362.717      4116.7749      678368.38      678612.37      678278.74      678419.83      293087.67      11.521042    
     15200   7.6            991.65912     -95337.485      4101.6959      678664.67      678269.22      678823.05      678585.65      293087.67      11.521042    
     15400   7.7            1001.2443     -95339.383      4141.3421      679003.6       678643.57      678479.45      678708.87      293087.67      11.521042    
     15600   7.8            1005.7258     -95329.834      4159.8785      679272.4       678476.77      679123.65      678957.61      293087.67      11.521042    
     15800   7.9            1002.6088     -95341.62       4146.9857      678949.39      678484.14      678793.63      678742.38      293087.67      11.521042    
     16000   8              1003.5833     -95350.542      4151.0165      679003.04      678438.46      678513.41      678651.63      293087.67      11.521042    
     16200   8.1            999.92012     -95373.898      4135.865       678229.19      678478.25      678374.92      678360.78      293087.67      11.521042    
     16400   8.2            999.05125     -95354.805      4132.2712      678414.85      678853.19      678406.5       678558.18      293087.67      11.521042    
     16600   8.3            995.94978     -95374.324      4119.4429      678709.75      678337.17      678004.6       678350.5       293087.67      11.521042    
     16800   8.4            996.06948     -95346.856      4119.938       678316.19      679067.5       678376.18      678586.62      293087.67      11.521042    
     17000   8.5            996.36725     -95348.952      4121.1696      678129.13      678755.08      678693.46      678525.89      293087.67      11.521042    
     17200   8.6            1008.3307     -95378.436      4170.6526      678510.51      678374.5       678186.6       678357.2       293087.67      11.521042    
     17400   8.7            999.3053      -95349.447      4133.3219      678951.86      678608.71      678267.98      678609.51      293087.67      11.521042    
     17600   8.8            1006.9895     -95345.368      4165.1053      678524.03      679037.28      678669.98      678743.76      293087.67      11.521042    
     17800   8.9            1003.4304     -95352.546      4150.3842      678805.15      678338.35      678685.02      678609.51      293087.67      11.521042    
     18000   9              1004.0558     -95376.065      4152.9711      678296.58      678526.43      678163.88      678328.96      293087.67      11.521042    
     18200   9.1            1006.6569     -95360.664      4163.7294      678734.74      678308.63      678592.83      678545.4       293087.67      11.521042    
     18400   9.2            998.91525     -95334.593      4131.7086      678649.38      678729.36      678825.24      678734.66      293087.67      11.521042    
     18600   9.3            999.77884     -95375.426      4135.2806      678270.33      678299.7       678235.06      678268.36      293087.67      11.521042    
     18800   9.4            1002.3846     -95345.385      4146.0586      678232.04      679123.21      678651.16      678668.8       293087.67      11.521042    
     19000   9.5            1006.2677     -95348.505      4162.1197      679196.59      678431.66      678481.01      678703.09      293087.67      11.521042    
     19200   9.6            1003.7791     -95339.056      4151.8266      678706.69      678568.97      678883.56      678719.74      293087.67      11.521042    
     19400   9.7            1008.1804     -95352.609      4170.0311      678636.48      678774.93      678626.39      678679.26      293087.67      11.521042    
     19600   9.8            993.90759     -95310.737      4110.996       678321.67      679184.92      679386.87      678964.49      293087.67      11.521042    
     19800   9.9            998.37766     -95373.257      4129.4851      678045.96      678620.62      678368.27      678344.95      293087.67      11.521042    
     20000   10             1003.627      -95374.098      4151.1972      678261.72      678427.06      678612.38      678433.72      293087.67      11.521042    
     20200   10.1           994.98934     -95354.743      4115.4703      678548.43      678320.96      678529.37      678466.25      293087.67      11.521042    
     20400   10.2           990.3095      -95414.289      4096.1136      677348.45      677830.62      678063.23      677747.44      293087.67      11.521042    
     20600   10.3           993.37712     -95382.752      4108.8019      678052.4       677567.33      678810.62      678143.45      293087.67      11.521042    
     20800   10.4           997.53663     -95338.236      4126.0064      678789.81      678132.94      678844.85      678589.2       293087.67      11.521042    
     21000   10.5           1001.3032     -95367.544      4141.5855      678300.15      678645.93      678363.43      678436.51      293087.67      11.521042    
     21200   10.6           1001.3533     -95368.671      4141.793       678061.33      678374.03      678616.62      678350.66      293087.67      11.521042    
     21400   10.7           1002.0208     -95369.041      4144.5539      678239.13      678672.76      678367.01      678426.3       293087.67      11.521042    
     21600   10.8           1004.3272     -95359.79       4154.0936      678833.8       678268.35      678611.69      678571.28      293087.67      11.521042    
     21800   10.9           994.14566     -95358.621      4111.9807      678336.84      678064.55      678811.75      678404.38      293087.67      11.521042    
     22000   11             998.65004     -95372.137      4130.6117      677932.7       678459.45      678262.76      678218.31      293087.67      11.521042    
     22200   11.1           996.25395     -95352.033      4120.701       678113.12      678583.58      678906.91      678534.53      293087.67      11.521042    
     22400   11.2           993.16416     -95349.907      4107.921       678567.12      678608.12      678080.97      678418.74      293087.67      11.521042    
     22600   11.3           1004.0065     -95393.766      4152.7669      678293.73      678505.08      677798.11      678198.97      293087.67      11.521042    
     22800   11.4           991.73299     -95377.178      4102.0014      678245.52      677820.49      678175.11      678080.37      293087.67      11.521042    
     23000   11.5           998.00257     -95370.333      4127.9336      678285.96      678465.41      678425.17      678392.18      293087.67      11.521042    
     23200   11.6           995.92053     -95377.928      4119.3219      678186.12      678438.98      678132.81      678252.64      293087.67      11.521042    
     23400   11.7           997.29046     -95354.207      4124.9882      678235.21      678741.5       678344.01      678440.24      293087.67      11.521042    
     23600   11.8           1002.4636     -95358.377      4146.3852      678461.29      678683.1       678458.68      678534.36      293087.67      11.521042    
     23800   11.9           1000.5024     -95360.369      4138.2734      678021.6       678423.38      678854.03      678433         293087.67      11.521042    
     24000   12             998.86091     -95375.876      4131.4839      678101.62      678475.89      678235.74      678271.08      293087.67      11.521042    
     24200   12.1           997.4672      -95369.851      4125.7192      678244.77      678634.92      678039.43      678306.37      293087.67      11.521042    
     24400   12.2           1005.4521     -95342.45       4158.7464      679078.67      678656.93      678654.49      678796.7       293087.67      11.521042    
     24600   12.3           995.15149     -95324.563      4116.141       678742.19      678744.92      679012.51      678833.21      293087.67      11.521042    
     24800   12.4           997.81698     -95381.497      4127.166       678535.83      678022.66      678127.95      678228.81      293087.67      11.521042    
     25000   12.5           1006.2368     -95349.773      4161.9919      678049.85      679049.73      678863.19      678654.25      293087.67      11.521042    
     25200   12.6           1007.6175     -95349.451      4167.703       678119.33      678914.15      678879.12      678637.53      293087.67      11.521042    
     25400   12.7           1000.0608     -95340.78       4136.4467      678855.7       679064.83      678369.44      678763.32      293087.67      11.521042    
     25600   12.8           998.65402     -95346.966      4130.6282      678315.01      678806.13      678617.5       678579.55      293087.67      11.521042    
     25800   12.9           996.6354      -95361.454      4122.2788      678534.41      678461.51      678268.95      678421.62      293087.67      11.521042    
     26000   13             997.24001     -95335.425      4124.7795      678862.52      678416.9       678452.01      678577.14      293087.67      11.521042    
     26200   13.1           1002.0037     -95343.625      4144.483       678625.31      678637.24      678688.67      678650.41      293087.67      11.521042    
     26400   13.2           995.47511     -95338.221      4117.4795      679169.53      678597.78      678159.25      678642.18      293087.67      11.521042    
     26600   13.3           997.05888     -95379.889      4124.0303      678251.44      678408.1       677940.06      678199.87      293087.67      11.521042    
     26800   13.4           998.68074     -95351.394      4130.7386      678430.59      678499.01      678757.44      678562.34      293087.67      11.521042    
     27000   13.5           1001.8815     -95329.07       4143.9774      678854.79      678832.91      678863.33      678850.34      293087.67      11.521042    
     27200   13.6           1000.991      -95361.677      4140.2944      678333.34      678724.96      678423.82      678494.04      293087.67      11.521042    
     27400   13.7           999.45564     -95364.097      4133.9438      678701.76      678931.31      677835.2       678489.42      293087.67      11.521042    
     27600   13.8           999.55801     -95359.672      4134.3672      678385.68      678258.08      678567.5       678403.75      293087.67      11.521042    
     27800   13.9           996.13488     -95363.373      4120.2085      678557.09      678329.73      678114.75      678333.86      293087.67      11.521042    
     28000   14             998.46104     -95358.91       4129.8299      678060.79      677941.79      679304.81      678435.8       293087.67      11.521042    
     28200   14.1           1009.3485     -95352.576      4174.8626      678807.38      679102.79      678196.6       678702.26      293087.67      11.521042    
     28400   14.2           1003.6485     -95346.3        4151.2864      678579.34      678514.16      679066.59      678720.03      293087.67      11.521042    
     28600   14.3           1003.5523     -95342.296      4150.8885      678291.73      678793.97      678931.88      678672.53      293087.67      11.521042    
     28800   14.4           998.57354     -95328.613      4130.2953      678853.34      678942.31      678617.75      678804.47      293087.67      11.521042    
     29000   14.5           996.81811     -95325.341      4123.0344      679272.25      678798.03      678302.93      678791.07      293087.67      11.521042    
     29200   14.6           1002.5844     -95349.803      4146.8849      678713.16      678059.4       678913.48      678562.01      293087.67      11.521042    
     29400   14.7           999.72472     -95355.827      4135.0568      678530.72      678985.98      678060.31      678525.67      293087.67      11.521042    
     29600   14.8           984.55356     -95356.394      4072.3059      678668.96      678418.66      677955.18      678347.6       293087.67      11.521042    
     29800   14.9           988.40408     -95354.543      4088.2324      678397.78      678785.66      678103.43      678428.96      293087.67      11.521042    
     30000   15             992.53593     -95367.438      4105.3225      677786.69      678798.83      678349.22      678311.58      293087.67      11.521042    
     30200   15.1           1000.828      -95375.333      4139.62        677928.83      678349.7       678759.6       678346.04      293087.67      11.521042    
     30400   15.2           992.979       -95393.803      4107.1552      678393.77      678241.01      677470.56      678035.11      293087.67      11.521042    
     30600   15.3           992.85169     -95378.283      4106.6286      678369.93      677905.12      678250.2       678175.08      293087.67      11.521042    
     30800   15.4           993.69849     -95395.617      4110.1311      677747.48      678251.24      678057.81      678018.84      293087.67      11.521042    
     31000   15.5           997.14384     -95395.64       4124.3817      677656.34      678284.37      678259.33      678066.68      293087.67      11.521042    
     31200   15.6           997.0886      -95350.812      4124.1533      678679.43      678534.95      678327.47      678513.95      293087.67      11.521042    
     31400   15.7           1002.0307     -95369.29       4144.5946      677968.64      678414.32      679032.36      678471.77      293087.67      11.521042    
     31600   15.8           999.83892     -95346.014      4135.5291      678609.58      678477.61      678735.77      678607.65      293087.67      11.521042    
     31800   15.9           1000.8866     -95356.001      4139.8625      678825.37      678474.64      678416.51      678572.17      293087.67      11.521042    
     32000   16             998.60582     -95337.054      4130.4288      678341.84      678884.16      678991.93      678739.31      293087.67      11.521042    
     32200   16.1           997.75706     -95333.687      4126.9181      678211.8       679305.05      678378.39      678631.74      293087.67      11.521042    
     32400   16.2           996.64949     -95378.43       4122.337       678425.93      678512.94      677842.72      678260.53      293087.67      11.521042    
     32600   16.3           994.88621     -95360.184      4115.0437      678156.52      678361.86      678545.51      678354.63      293087.67      11.521042    
     32800   16.4           995.79861     -95345.357      4118.8176      678646.71      679190.63      677922.49      678586.61      293087.67      11.521042    
     33000   16.5           1003.375      -95352.819      4150.1549      678583.96      678823.46      678228.47      678545.3       293087.67      11.521042    
     33200   16.6           1002.982      -95359.871      4148.5296      678443.91      678695.65      678433.4       678524.32      293087.67      11.521042    
     33400   16.7           1003.1261     -95338.407      4149.1254      679011.46      678520.67      678669.3       678733.81      293087.67      11.521042    
     33600   16.8           994.61987     -95361.92       4113.9421      678185.88      678730.61      678454.48      678456.99      293087.67      11.521042    
     33800   16.9           992.15412     -95367.228      4103.7433      678035.93      678362.65      678537.25      678311.94      293087.67      11.521042    
     34000   17             998.37966     -95382.769      4129.4933      678034.55      678044.25      678458.87      678179.22      293087.67      11.521042    
     34200   17.1           992.44968     -95368.855      4104.9658      677940.06      678383.93      678486.34      678270.11      293087.67      11.521042    
     34400   17.2           1000.8953     -95350.712      4139.8984      679050.12      678175.08      678446.72      678557.31      293087.67      11.521042    
     34600   17.3           1000.0355     -95345.269      4136.3422      678429.08      679163.94      678235.2       678609.41      293087.67      11.521042    
     34800   17.4           1005.0443     -95392.169      4157.0595      678485.86      677641.77      678396.78      678174.8       293087.67      11.521042    
     35000   17.5           999.53598     -95365.224      4134.2761      678456.83      678388.02      677981.8       678275.55      293087.67      11.521042    
     35200   17.6           1004.7168     -95369.037      4155.705       678231.51      678734         678355.75      678440.42      293087.67      11.521042    
     35400   17.7           999.99384     -95333.861      4136.1699      679258.18      678555.67      678356.98      678723.61      293087.67      11.521042    
     35600   17.8           998.41069     -95346.944      4129.6217      678117.35      678589.87      678848.05      678518.43      293087.67      11.521042    
     35800   17.9           1008.0203     -95347.686      4169.3688      678901.73      678225.83      679193.43      678773.66      293087.67      11.521042    
     36000   18             999.76638     -95316.71       4135.2291      678979.12      678975.78      678679.53      678878.14      293087.67      11.521042    
     36200   18.1           996.58292     -95374.438      4122.0617      677833.18      678481.5       678597.05      678303.91      293087.67      11.521042    
     36400   18.2           994.57289     -95387.863      4113.7478      678174.54      678107.42      678033.17      678105.04      293087.67      11.521042    
     36600   18.3           1001.4305     -95390.797      4142.1121      677224.49      678673.08      678307.64      678068.4       293087.67      11.521042    
     36800   18.4           999.40433     -95343.563      4133.7316      678123.9       679066.7       678911.09      678700.56      293087.67      11.521042    
     37000   18.5           1002.8437     -95364.258      4147.9573      678209.28      678235.09      679030.9       678491.76      293087.67      11.521042    
     37200   18.6           1007.2849     -95360.673      4166.327       678247.18      679119.5       678477.07      678614.58      293087.67      11.521042    
     37400   18.7           1001.5145     -95360.433      4142.4596      678444.41      678634.41      678396.22      678491.68      293087.67      11.521042    
     37600   18.8           1004.9603     -95372.791      4156.7123      677902.59      678189.72      679101.23      678397.85      293087.67      11.521042    
     37800   18.9           1001.6198     -95342.854      4142.8951      678466.17      678470.67      679044.77      678660.54      293087.67      11.521042    
     38000   19             1002.5949     -95352.152      4146.9283      679069.38      677946.09      678803.47      678606.32      293087.67      11.521042    
     38200   19.1           999.91282     -95341.86       4135.8348      678212.4       678876.92      679121.17      678736.83      293087.67      11.521042    
     38400   19.2           1001.835      -95353.847      4143.7854      678839.27      678640.79      678456.13      678645.4       293087.67      11.521042    
     38600   19.3           1005.5432     -95363.397      4159.123       678645.76      678661.68      678494.6       678600.68      293087.67      11.521042    
     38800   19.4           998.17302     -95327.487      4128.6386      679078.88      678686.69      678531.33      678765.63      293087.67      11.521042    
     39000   19.5           1001.4305     -95352.342      4142.1121      679034.12      678004.06      678753.6       678597.26      293087.67      11.521042    
     39200   19.6           1000.0046     -95371.972      4136.2143      678841.79      678141.09      678229.34      678404.07      293087.67      11.521042    
     39400   19.7           1000.0838     -95372.913      4136.5422      678172.6       678777.89      678269.45      678406.65      293087.67      11.521042    
     39600   19.8           996.82329     -95393.801      4123.0559      677710.6       678300.81      678147.93      678053.12      293087.67      11.521042    
     39800   19.9           1003.109      -95343.724      4149.0549      678374.43      678538.83      679299.7       678737.65      293087.67      11.521042    
     40000   20             997.90624     -95377.417      4127.5352      678648.83      678685.39      677392.42      678242.21      293087.67      11.521042    
     40200   20.1           1005.0827     -95372.118      4157.2186      678592.43      678528.28      678172.2       678430.97      293087.67      11.521042    
     40400   20.2           1001.7468     -95358.895      4143.4206      678537.24      678342.99      678545.83      678475.35      293087.67      11.521042    
     40600   20.3           1006.0912     -95376.375      4161.3896      678520.01      678432.18      678166.92      678373.04      293087.67      11.521042    
     40800   20.4           1000.5021     -95390.489      4138.2722      678317.96      677937.92      678164.1       678139.99      293087.67      11.521042    
     41000   20.5           1000.7797     -95400.486      4139.4204      678481.03      677881.64      677836.6       678066.42      293087.67      11.521042    
     41200   20.6           996.77762     -95361.73       4122.867       678194.08      678587.34      678309.83      678363.75      293087.67      11.521042    
     41400   20.7           993.30885     -95348.374      4108.5195      678871.91      678005.6       678663.41      678513.64      293087.67      11.521042    
     41600   20.8           990.71322     -95362.108      4097.7834      677838.1       678633.18      678512.52      678327.93      293087.67      11.521042    
     41800   20.9           995.52002     -95369.233      4117.6653      678030.11      677976.94      678785.02      678264.03      293087.67      11.521042    
     42000   21             998.94947     -95314.034      4131.8502      678761.99      679330.29      678830.64      678974.31      293087.67      11.521042    
     42200   21.1           997.65967     -95352.445      4126.5153      679087.8       678507.86      678067.61      678554.42      293087.67      11.521042    
     42400   21.2           1003.0058     -95389.966      4148.6279      677741.94      678542.2       678417.49      678233.88      293087.67      11.521042    
     42600   21.3           1000.465      -95374.978      4138.1189      678406.2       678382.03      678277.98      678355.4       293087.67      11.521042    
     42800   21.4           1006.7252     -95385.227      4164.0122      678413.24      678626.61      677900.11      678313.32      293087.67      11.521042    
     43000   21.5           1002.9742     -95371.473      4148.4973      678491.6       678559.73      678095.25      678382.19      293087.67      11.521042    
     43200   21.6           991.04504     -95356.295      4099.1559      678319.68      678581.87      678496.32      678465.96      293087.67      11.521042    
     43400   21.7           991.7308      -95363.899      4101.9924      678596.19      678006.77      678416.68      678339.88      293087.67      11.521042    
     43600   21.8           998.16497     -95354.6        4128.6053      678856.35      678341.55      678165.13      678454.35      293087.67      11.521042    
     43800   21.9           1003.5079     -95360.482      4150.7046      678630.81      678888.93      678039.56      678519.77      293087.67      11.521042    
     44000   22             994.86242     -95383.374      4114.9454      677968.46      678341.2       677985.48      678098.38      293087.67      11.521042    
     44200   22.1           997.43985     -95358.987      4125.6061      677963.44      678777.76      678358.9       678366.7       293087.67      11.521042    
     44400   22.2           987.25197     -95358.344      4083.467       678445.74      678795.59      677711.3       678317.54      293087.67      11.521042    
     44600   22.3           997.05834     -95357.653      4124.0281      678479.71      678694.67      678428.52      678534.3       293087.67      11.521042    
     44800   22.4           1002.2124     -95348.625      4145.3463      678938.55      678641.34      678562.38      678714.09      293087.67      11.521042    
     45000   22.5           1003.0291     -95356.334      4148.7244      678794.13      678441.73      678647.17      678627.68      293087.67      11.521042    
     45200   22.6           995.49321     -95331.429      4117.5544      678844.28      679113.07      678237.12      678731.49      293087.67      11.521042    
     45400   22.7           997.77286     -95380.487      4126.9835      678603.29      678056.95      678137.89      678266.04      293087.67      11.521042    
     45600   22.8           999.60901     -95387.125      4134.5782      677886.49      678532.19      678198.47      678205.72      293087.67      11.521042    
     45800   22.9           998.42441     -95385.163      4129.6784      678016.97      678403.68      677971.49      678130.71      293087.67      11.521042    
     46000   23             999.44141     -95372.955      4133.885       677908.03      678614.45      678312.7       678278.39      293087.67      11.521042    
     46200   23.1           998.87049     -95353.146      4131.5235      677789.43      678882.37      678720.87      678464.23      293087.67      11.521042    
     46400   23.2           995.81364     -95363.144      4118.8798      678280.39      678319.62      678366.44      678322.15      293087.67      11.521042    
     46600   23.3           996.51214     -95381.163      4121.7689      677921.34      678500.7       678179.23      678200.42      293087.67      11.521042    
     46800   23.4           998.19279     -95369.79       4128.7204      678545.02      678630.3       678007.78      678394.37      293087.67      11.521042    
     47000   23.5           991.73041     -95327.14       4101.9907      678705.81      678762.48      678838.8       678769.03      293087.67      11.521042    
     47200   23.6           994.57032     -95356.57       4113.7372      678728.29      678315.64      678168.72      678404.22      293087.67      11.521042    
     47400   23.7           999.27443     -95347.626      4133.1943      678515.54      678283.91      678822.03      678540.49      293087.67      11.521042    
     47600   23.8           1004.0174     -95362.174      4152.8122      678543.96      678369.19      678606.46      678506.54      293087.67      11.521042    
     47800   23.9           1001.414      -95374.148      4142.0439      678094.09      678098.1       678780.94      678324.38      293087.67      11.521042    
     48000   24             995.0874      -95363.237      4115.8759      677965.04      678472.19      678337.74      678258.32      293087.67      11.521042    
     48200   24.1           1003.4498     -95364.215      4150.4646      678611.76      678569.17      678519.57      678566.83      293087.67      11.521042    
     48400   24.2           997.0488      -95360.589      4123.9886      678093.88      678396.44      679046.93      678512.42      293087.67      11.521042    
     48600   24.3           995.42484     -95320.861      4117.2716      678742.5       678853.95      679131.33      678909.26      293087.67      11.521042    
     48800   24.4           998.01369     -95317.568      4127.9796      679022.23      678966.94      678985.21      678991.46      293087.67      11.521042    
     49000   24.5           1003.7104     -95350.546      4151.5425      678486.5       678943.5       678558.94      678662.98      293087.67      11.521042    
     49200   24.6           1004.8089     -95347.546      4156.0859      678692.01      678233.74      678939.37      678621.7       293087.67      11.521042    
     49400   24.7           1007.7031     -95351.402      4168.0569      678594.71      678905.52      678748.53      678749.58      293087.67      11.521042    
     49600   24.8           1000.1121     -95364.397      4136.6589      678466.23      678569.61      678308.54      678448.13      293087.67      11.521042    
     49800   24.9           1000.3612     -95337.397      4137.6892      678548.29      678969.15      678818.47      678778.64      293087.67      11.521042    
     50000   25             1003.0395     -95369.75       4148.7675      677897.06      678726.79      678500.28      678374.71      293087.67      11.521042    
Loop time of 49.6974 on 1 procs for 50000 steps with 32000 atoms

Performance: 43.463 ns/day, 0.552 hours/ns, 1006.089 timesteps/s, 32.195 Matom-step/s
99.8% CPU use with 1 MPI tasks x 1 OpenMP threads

MPI task timing breakdown:
Section |  min time  |  avg time  |  max time  |%varavg| %total
---------------------------------------------------------------
Pair    | 30.334     | 30.334     | 30.334     |   0.0 | 61.04
Neigh   | 0          | 0          | 0          |   0.0 |  0.00
Comm    | 15.204     | 15.204     | 15.204     |   0.0 | 30.59
Output  | 0.11706    | 0.11706    | 0.11706    |   0.0 |  0.24
Modify  | 2.1138     | 2.1138     | 2.1138     |   0.0 |  4.25
Other   |            | 1.929      |            |       |  3.88

Nlocal:          32000 ave       32000 max       32000 min
Histogram: 1 0 0 0 0 0 0 0 0 0
Nghost:          26825 ave       26825 max       26825 min
Histogram: 1 0 0 0 0 0 0 0 0 0
Neighs:      3.584e+06 ave   3.584e+06 max   3.584e+06 min
Histogram: 1 0 0 0 0 0 0 0 0 0

Total # of neighbors = 3584000
Ave neighs/atom = 112
Neighbor list builds = 0
Dangerous builds = 0
Total wall time: 0:00:52
