LAMMPS (10 Sep 2025)
KOKKOS mode with Kokkos version 4.6.2 is enabled
  using double precision
  using view layout = legacy
  will use up to 1 GPU(s) per node
  using 1 OpenMP thread(s) per MPI task
package kokkos
package kokkos newton on neigh half comm device
dimension       3
units           metal
atom_style      atomic
boundary        p p p

# --- Create FCC Cu lattice ---
#lattice         fcc 3.52
#region          box block 0 20 0 20 0 20
#create_box      1 box
#create_atoms    1 box
#mass            1 63.546

read_data       ../../../eos/0.85V/Cu-0.85V.lmp
Reading data file ...
  orthogonal box = (1.8561664 1.8561664 1.8561664) to (68.543834 68.543834 68.543834)
  1 by 1 by 1 MPI processor grid
  reading atoms ...
  32000 atoms
  reading velocities ...
  32000 velocities
  read_data CPU = 0.164 seconds
#change_box     all x scale _scale_ y scale _scale_ z scale _scale_ remap

neighbor        2.0 bin
neigh_modify    delay 0 every 1 check yes

pair_style      eam/alloy
pair_coeff      * * Cu-EAM-Z1622old.eam.alloy Cu

shell           "mkdir -p dumps"

variable	thold equal 1000
variable	itemp equal 2*1000
variable	runNVE equal 50000
variable	tstep equal 0.0005
variable	ph string 1000K-0.85V

timestep        ${tstep}
timestep        0.0005
thermo          200
thermo_style    custom step time temp pe ke pxx pyy pzz press vol density
#thermo_modify	norm yes

dump        	RDUMP all custom 20000 dumps/${ph}-NV-1000K-*.xyz id type x y z
dump        	RDUMP all custom 20000 dumps/1000K-0.85V-NV-1000K-*.xyz id type x y z

#NV  1000K calculation
velocity 		all create ${itemp}  23796
velocity 		all create 2000  23796

fix 			LANG all langevin ${thold} ${thold} $(300.0*dt) 33948
fix 			LANG all langevin 1000 ${thold} $(300.0*dt) 33948
fix 			LANG all langevin 1000 1000 $(300.0*dt) 33948
fix 			LANG all langevin 1000 1000 0.14999999999999999445 33948
fix 			NVE all nve
run  			${runNVE}
run  			50000
Neighbor list info ...
  update: every = 1 steps, delay = 0 steps, check = yes
  max neighbors/atom: 2000, page size: 100000
  master list distance cutoff = 7.859375
  ghost atom cutoff = 7.859375
  binsize = 7.859375, bins = 9 9 9
  1 neighbor lists, perpetual/occasional/extra = 1 0 0
  (1) pair eam/alloy/kk, perpetual
      attributes: half, newton on, kokkos_device
      pair build: half/bin/newton/kk/device
      stencil: half/bin/3d
      bin: kk/device
Per MPI rank memory allocation (min/avg/max) = 11.49 | 11.49 | 11.49 Mbytes
   Step          Time           Temp          PotEng         KinEng          Pxx            Pyy            Pzz           Press          Volume        Density    
         0   0              2000          -100678.88      8272.3908      601922.75      601746.91      601753.47      601807.71      296576.39      11.385516    
       200   0.1            1074.1062     -96915.338      4442.7132      627469.58      627786.18      627731.85      627662.54      296576.39      11.385516    
       400   0.2            1000.1382     -96651.351      4136.767       629662.78      629543.57      630094.74      629767.03      296576.39      11.385516    
       600   0.3            1006.6929     -96665.252      4163.8786      630364.38      629378.91      629762.29      629835.19      296576.39      11.385516    
       800   0.4            1004.6526     -96652.469      4155.4396      630127.48      629733.36      630026.14      629962.33      296576.39      11.385516    
      1000   0.5            1002.8966     -96670.889      4148.1761      629465.61      629765.39      630042.98      629757.99      296576.39      11.385516    
      1200   0.6            998.4633      -96648.269      4129.8393      629771.15      630282.65      629449         629834.27      296576.39      11.385516    
      1400   0.7            1002.8207     -96670.306      4147.8623      629902.08      629667.95      629760.46      629776.83      296576.39      11.385516    
      1600   0.8            1003.9284     -96654.597      4152.4441      629848.53      629779.03      630121.97      629916.51      296576.39      11.385516    
      1800   0.9            994.96437     -96645.507      4115.367       630078.07      630059.08      629244.92      629794.02      296576.39      11.385516    
      2000   1              1002.1297     -96658.635      4145.0042      629803.45      629921.53      629938.43      629887.8       296576.39      11.385516    
      2200   1.1            1000.553      -96691.171      4138.4826      629579.22      629475.4       629553.58      629536.06      296576.39      11.385516    
      2400   1.2            1000.1799     -96617.839      4136.9394      630436.97      630485.97      629894.59      630272.51      296576.39      11.385516    
      2600   1.3            1000.9044     -96651.671      4139.9363      630072.53      630109.96      629769.37      629983.95      296576.39      11.385516    
      2800   1.4            1002.3357     -96679.316      4145.8561      629004.09      630214.18      629740.93      629653.07      296576.39      11.385516    
      3000   1.5            1002.1081     -96684.329      4144.9148      629384.46      629637.1       629721.4       629580.98      296576.39      11.385516    
      3200   1.6            1005.0007     -96676.571      4156.8793      629703.83      629510.96      630004.65      629739.82      296576.39      11.385516    
      3400   1.7            998.78141     -96662.084      4131.1551      629436.36      629752.17      630237.18      629808.57      296576.39      11.385516    
      3600   1.8            997.00759     -96673.425      4123.8182      629513.32      629708.96      629538.49      629586.92      296576.39      11.385516    
      3800   1.9            995.43347     -96682.432      4117.3073      629394.92      629387.2       629855.35      629545.82      296576.39      11.385516    
      4000   2              997.60905     -96636.857      4126.3059      630018.49      629987.5       629961.59      629989.19      296576.39      11.385516    
      4200   2.1            995.82657     -96680.776      4118.9333      629703.43      629258.32      629610.47      629524.07      296576.39      11.385516    
      4400   2.2            995.34393     -96650.485      4116.937       630616.05      629339.23      629535.77      629830.35      296576.39      11.385516    
      4600   2.3            1003.84       -96654.031      4152.0782      629477.95      630367.71      629761.49      629869.05      296576.39      11.385516    
      4800   2.4            1006.3989     -96635.075      4162.6625      629909.68      630692.85      629830.04      630144.19      296576.39      11.385516    
      5000   2.5            1004.2976     -96644.024      4153.971       630145.53      629575.64      630426.9       630049.36      296576.39      11.385516    
      5200   2.6            1000.194      -96643.888      4136.9979      630155.7       629585.64      630122.66      629954.67      296576.39      11.385516    
      5400   2.7            1004.1655     -96650.89       4153.4246      629490.18      630084.28      630197.16      629923.87      296576.39      11.385516    
      5600   2.8            1000.029      -96671.203      4136.3152      629648.39      629552.28      629941.52      629714.06      296576.39      11.385516    
      5800   2.9            1004.4243     -96653.399      4154.495       630468.99      629739.37      629728.35      629978.91      296576.39      11.385516    
      6000   3              1002.3047     -96641.539      4145.7281      630475.31      629768.82      629897.68      630047.27      296576.39      11.385516    
      6200   3.1            994.31068     -96631.444      4112.6633      629972.57      630087.21      630036.32      630032.03      296576.39      11.385516    
      6400   3.2            1004.8936     -96659.42       4156.4364      629671.55      630155.15      629703.46      629843.39      296576.39      11.385516    
      6600   3.3            1004.0096     -96642.92       4152.78        630202.71      629915.18      629790.92      629969.61      296576.39      11.385516    
      6800   3.4            1004.7372     -96646.467      4155.7895      629790.86      630364.24      629871.66      630008.92      296576.39      11.385516    
      7000   3.5            1004.4302     -96641.213      4154.5194      629684.58      630020.58      630439.42      630048.19      296576.39      11.385516    
      7200   3.6            1000.9748     -96661.885      4140.2275      629383.56      629510.96      630539.09      629811.21      296576.39      11.385516    
      7400   3.7            996.99489     -96668.778      4123.7656      629360.93      629740.64      629785.97      629629.18      296576.39      11.385516    
      7600   3.8            1000.7584     -96664.491      4139.3323      629792.2       629808.15      629593.13      629731.16      296576.39      11.385516    
      7800   3.9            1007.2821     -96679.922      4166.3155      629618.42      629437.44      629802.54      629619.47      296576.39      11.385516    
      8000   4              1000.2023     -96649.738      4137.0322      629988.81      629652.77      630062.94      629901.51      296576.39      11.385516    
      8200   4.1            994.88474     -96633.613      4115.0377      629527.15      629761.16      630719.73      630002.68      296576.39      11.385516    
      8400   4.2            1008.6383     -96680.913      4171.9252      629547.5       629390.56      630069.14      629669.07      296576.39      11.385516    
      8600   4.3            1002.9185     -96651.868      4148.2669      629974.67      629656.32      630232.57      629954.52      296576.39      11.385516    
      8800   4.4            995.58454     -96636.437      4117.9322      629811.9       629696.53      630471.22      629993.22      296576.39      11.385516    
      9000   4.5            1011.9293     -96664.544      4185.5371      629376.18      630416.89      629944.55      629912.54      296576.39      11.385516    
      9200   4.6            999.56038     -96655.797      4134.377       629682.41      630118.47      629907.35      629902.74      296576.39      11.385516    
      9400   4.7            999.18826     -96641.9        4132.8379      630083.67      630122.55      629800.82      630002.35      296576.39      11.385516    
      9600   4.8            999.36732     -96654.277      4133.5785      629235.92      629707.01      630625.33      629856.09      296576.39      11.385516    
      9800   4.9            999.6902      -96655.022      4134.914       630394.78      629485.64      629816.09      629898.84      296576.39      11.385516    
     10000   5              996.67902     -96655.976      4122.4592      630193.05      629588.31      629648.36      629809.91      296576.39      11.385516    
     10200   5.1            1000.0952     -96643.411      4136.5893      630045.07      629766.21      630152.95      629988.08      296576.39      11.385516    
     10400   5.2            997.93805     -96658.623      4127.6667      629496.08      629784.91      630065.62      629782.21      296576.39      11.385516    
     10600   5.3            1006.6704     -96633.488      4163.7854      630065.86      630287.65      630065.3       630139.61      296576.39      11.385516    
     10800   5.4            1007.2599     -96680.746      4166.2239      630002.99      629669.53      629266.69      629646.4       296576.39      11.385516    
     11000   5.5            996.54486     -96672.685      4121.9042      629371.32      629543.2       629707.88      629540.8       296576.39      11.385516    
     11200   5.6            998.17559     -96678.341      4128.6493      629941.15      629465.21      629280.75      629562.37      296576.39      11.385516    
     11400   5.7            998.48311     -96666.063      4129.9212      629416.64      629861.91      629925.35      629734.63      296576.39      11.385516    
     11600   5.8            1002.0229     -96672.487      4144.5625      629571.63      629818.25      629701.3       629697.06      296576.39      11.385516    
     11800   5.9            993.62015     -96680.442      4109.8071      629721.83      629013.44      629825.05      629520.11      296576.39      11.385516    
     12000   6              997.90362     -96687.183      4127.5244      629766.73      629261.1       629444.51      629490.78      296576.39      11.385516    
     12200   6.1            997.45512     -96686.299      4125.6692      628792.25      630257.91      629391.83      629480.66      296576.39      11.385516    
     12400   6.2            1001.9149     -96634.235      4144.1159      630465.78      630098.44      629872.22      630145.48      296576.39      11.385516    
     12600   6.3            1006.1745     -96634.838      4161.7342      630579.36      629933.46      630052.76      630188.53      296576.39      11.385516    
     12800   6.4            1005.9964     -96660.915      4160.9976      630008.89      629644.93      630017.55      629890.46      296576.39      11.385516    
     13000   6.5            1005.99       -96653.994      4160.9713      630654.41      629604.35      629501.85      629920.21      296576.39      11.385516    
     13200   6.6            994.92763     -96619.489      4115.2151      630222.96      630189.73      629958.7       630123.8       296576.39      11.385516    
     13400   6.7            995.48209     -96650.672      4117.5084      629731.35      629857.62      629970.41      629853.13      296576.39      11.385516    
     13600   6.8            1001.1547     -96655.088      4140.9714      629949.08      629996.36      629721.36      629888.94      296576.39      11.385516    
     13800   6.9            1001.0707     -96672.391      4140.6241      629255.23      629726.16      630322.77      629768.05      296576.39      11.385516    
     14000   7              1000.7937     -96662.835      4139.4782      629607.43      629710.1       629872.25      629729.93      296576.39      11.385516    
     14200   7.1            1000.9972     -96674.481      4140.3202      630015.68      628949.61      630005.74      629657.01      296576.39      11.385516    
     14400   7.2            999.79531     -96643.457      4135.3487      629720.82      629810.29      630436.27      629989.13      296576.39      11.385516    
     14600   7.3            992.13148     -96635.208      4103.6496      630152.73      629452.67      630244.69      629950.03      296576.39      11.385516    
     14800   7.4            1003.055      -96651.765      4148.8314      630053.61      630264.81      629484.13      629934.18      296576.39      11.385516    
     15000   7.5            1003.043      -96658.396      4148.7819      630341.94      629790.24      629509.47      629880.55      296576.39      11.385516    
     15200   7.6            1001.1299     -96657.381      4140.8688      629922.71      629552.91      629955.9       629810.51      296576.39      11.385516    
     15400   7.7            1001.6626     -96647.76       4143.0724      629817.02      629685.31      630339.36      629947.23      296576.39      11.385516    
     15600   7.8            1004.4078     -96651.856      4154.4271      630302.94      629693.96      629903.66      629966.85      296576.39      11.385516    
     15800   7.9            997.97389     -96653.578      4127.815       630216.36      629652.68      629465.48      629778.17      296576.39      11.385516    
     16000   8              1000.2347     -96646.517      4137.1662      630428         629745.92      629728.7       629967.54      296576.39      11.385516    
     16200   8.1            999.60819     -96633.121      4134.5748      630131.15      630114.48      629781.9       630009.17      296576.39      11.385516    
     16400   8.2            1005.9875     -96625.938      4160.9609      629957.1       630809.71      629911.84      630226.22      296576.39      11.385516    
     16600   8.3            997.01749     -96664.132      4123.8591      630157.94      629270.58      629521.71      629650.07      296576.39      11.385516    
     16800   8.4            1003.9778     -96655.206      4152.6483      630255.05      629967.45      629617.09      629946.53      296576.39      11.385516    
     17000   8.5            1005.2567     -96647.576      4157.938       629779.82      630095.93      630135.62      630003.79      296576.39      11.385516    
     17200   8.6            1002.0091     -96651.31       4144.5056      629892.1       630243.21      629625.08      629920.13      296576.39      11.385516    
     17400   8.7            1005.0253     -96656.553      4156.9812      629907.96      630158.34      629791.08      629952.46      296576.39      11.385516    
     17600   8.8            998.29772     -96632.6        4129.1544      629742.69      630378.98      629999.65      630040.44      296576.39      11.385516    
     17800   8.9            999.93504     -96641.252      4135.9267      629162.93      630011.04      630859.98      630011.31      296576.39      11.385516    
     18000   9              1003.3186     -96659.885      4149.9216      630084.43      629832.06      629689.88      629868.79      296576.39      11.385516    
     18200   9.1            998.03848     -96639.478      4128.0822      630358.94      629773.2       630077.61      630069.92      296576.39      11.385516    
     18400   9.2            997.77083     -96647.391      4126.9751      630029.65      629928.68      630098.61      630018.98      296576.39      11.385516    
     18600   9.3            994.30042     -96644.593      4112.6208      629674.66      630524.23      629461         629886.63      296576.39      11.385516    
     18800   9.4            994.07097     -96644.976      4111.6717      630073.69      629974.89      629488.81      629845.79      296576.39      11.385516    
     19000   9.5            1002.5407     -96661.756      4146.7041      630012.1       629632.52      629505.77      629716.8       296576.39      11.385516    
     19200   9.6            1002.7484     -96627.191      4147.5634      630165.08      630070.46      630549.94      630261.83      296576.39      11.385516    
     19400   9.7            998.68422     -96632.026      4130.7531      630563.03      630127.82      629598.48      630096.44      296576.39      11.385516    
     19600   9.8            999.12162     -96642.043      4132.5622      629390.59      630749.73      629703.78      629948.04      296576.39      11.385516    
     19800   9.9            1001.2785     -96646.641      4141.4837      629757.37      630011.56      630365.29      630044.74      296576.39      11.385516    
     20000   10             1006.665      -96627.813      4163.7633      630598.41      630131.94      630168.05      630299.47      296576.39      11.385516    
     20200   10.1           1001.3196     -96623.93       4141.6534      630415.73      630103.52      630178.54      630232.59      296576.39      11.385516    
     20400   10.2           1002.4346     -96640.969      4146.2653      630215.83      630033.55      630022.58      630090.66      296576.39      11.385516    
     20600   10.3           1007.6636     -96629.522      4167.8933      630182.13      630358.62      630125.2       630221.98      296576.39      11.385516    
     20800   10.4           1004.2285     -96622.783      4153.6851      629953.66      630393.21      630331.71      630226.19      296576.39      11.385516    
     21000   10.5           995.18049     -96623.68       4116.2609      629625.18      630100.34      630232.26      629985.93      296576.39      11.385516    
     21200   10.6           995.07011     -96653.145      4115.8044      630168         629739.28      629341.61      629749.63      296576.39      11.385516    
     21400   10.7           997.58762     -96678.799      4126.2173      629436.96      629977.48      629122.84      629512.43      296576.39      11.385516    
     21600   10.8           997.62323     -96628.097      4126.3646      629928.96      629805.93      630493.65      630076.18      296576.39      11.385516    
     21800   10.9           996.3802      -96650.4        4121.2232      629732.64      629648.97      630037.72      629806.44      296576.39      11.385516    
     22000   11             1004.8267     -96677.873      4156.1598      629403.41      629512.12      629850.79      629588.77      296576.39      11.385516    
     22200   11.1           1002.619      -96650.51       4147.0282      629765.69      630094.83      629711.7       629857.41      296576.39      11.385516    
     22400   11.2           987.31778     -96638.776      4083.7392      630333.86      629005.23      629970.99      629770.03      296576.39      11.385516    
     22600   11.3           1001.009      -96665.095      4140.3689      629542.85      629850.86      629888.7       629760.8       296576.39      11.385516    
     22800   11.4           998.21303     -96668.014      4128.8041      629843.31      629649.21      629492.01      629661.51      296576.39      11.385516    
     23000   11.5           1007.1014     -96687.482      4165.5683      629331.91      629612.16      629956.86      629633.64      296576.39      11.385516    
     23200   11.6           1001.5494     -96695.301      4142.604       628944.63      630062.05      629384.91      629463.86      296576.39      11.385516    
     23400   11.7           1001.5088     -96651.151      4142.4362      630297.53      629743.65      629396.24      629812.47      296576.39      11.385516    
     23600   11.8           1007.1935     -96673.302      4165.9493      629997.17      629692.8       629349         629679.65      296576.39      11.385516    
     23800   11.9           1005.5331     -96654.178      4159.0815      630302.3       629557.16      630031.48      629963.65      296576.39      11.385516    
     24000   12             999.18785     -96660.348      4132.8362      629896.67      629950.84      629832.02      629893.18      296576.39      11.385516    
     24200   12.1           996.065       -96646.891      4119.9195      629901.91      630026.1       629795.58      629907.86      296576.39      11.385516    
     24400   12.2           1005.1583     -96646.273      4157.5309      629898.02      630137.87      630216.05      630083.98      296576.39      11.385516    
     24600   12.3           1008.9358     -96655.382      4173.1555      630458.13      629957.57      629541.84      629985.85      296576.39      11.385516    
     24800   12.4           1001.3904     -96689.585      4141.9465      629248.69      629770.29      629581.61      629533.53      296576.39      11.385516    
     25000   12.5           997.76565     -96672.928      4126.9537      629325.78      629585.87      630031.64      629647.76      296576.39      11.385516    
     25200   12.6           1003.2262     -96666.006      4149.5396      629560.85      629990.28      629624.98      629725.37      296576.39      11.385516    
     25400   12.7           999.88305     -96657.062      4135.7117      629630.22      630103.73      629593.27      629775.74      296576.39      11.385516    
     25600   12.8           999.46895     -96668.24       4133.9988      629833.03      630117.64      629215.82      629722.16      296576.39      11.385516    
     25800   12.9           995.48978     -96653.161      4117.5402      629796.69      629854.46      629891.24      629847.46      296576.39      11.385516    
     26000   13             1001.8482     -96681.744      4143.8399      629876.02      629941.71      628981.07      629599.6       296576.39      11.385516    
     26200   13.1           1002.8988     -96653.419      4148.1856      629669.91      630317         629472.88      629819.93      296576.39      11.385516    
     26400   13.2           1002.1331     -96647.685      4145.0182      629947.57      630096.91      629539.85      629861.44      296576.39      11.385516    
     26600   13.3           1001.4787     -96665.408      4142.3118      629693.87      629496.44      629989.32      629726.54      296576.39      11.385516    
     26800   13.4           998.75997     -96644.934      4131.0664      629762.34      629987.45      630108.41      629952.73      296576.39      11.385516    
     27000   13.5           989.34833     -96635.839      4092.138       629712.6       630165.59      629781.96      629886.72      296576.39      11.385516    
     27200   13.6           996.37967     -96618.919      4121.221       629717.69      630212.37      630406.94      630112.33      296576.39      11.385516    
     27400   13.7           1003.7704     -96664.446      4151.7905      629540.94      629906.09      629925.47      629790.83      296576.39      11.385516    
     27600   13.8           997.43374     -96643.946      4125.5808      630653.32      629714.1       629306.5       629891.31      296576.39      11.385516    
     27800   13.9           998.42453     -96639.395      4129.6789      629891.06      630088.15      630012.97      629997.4       296576.39      11.385516    
     28000   14             999.97252     -96684.065      4136.0817      629557.98      630193.86      628922.46      629558.1       296576.39      11.385516    
     28200   14.1           1002.1288     -96666.125      4145.0003      630096.05      629924.18      629184.53      629734.92      296576.39      11.385516    
     28400   14.2           997.54661     -96686.332      4126.0477      629514.89      629405.8       629513.22      629477.97      296576.39      11.385516    
     28600   14.3           999.62986     -96673.083      4134.6644      629687.13      629739.67      629679.53      629702.11      296576.39      11.385516    
     28800   14.4           992.68206     -96665.442      4105.927       629574.98      629950.98      629379.32      629635.09      296576.39      11.385516    
     29000   14.5           995.29316     -96651.899      4116.727       630050.53      629823.97      629653.34      629842.61      296576.39      11.385516    
     29200   14.6           995.12882     -96650.024      4116.0472      630052.21      629765.63      629764.56      629860.8       296576.39      11.385516    
     29400   14.7           996.33809     -96652.45       4121.049       629662.06      630169.64      629900.45      629910.71      296576.39      11.385516    
     29600   14.8           986.29062     -96622.956      4079.4907      629899.38      630089.95      630156.07      630048.47      296576.39      11.385516    
     29800   14.9           1001.336      -96637.881      4141.7214      629504.97      630224.49      630524.94      630084.8       296576.39      11.385516    
     30000   15             999.35033     -96656.219      4133.5082      629492.14      629841.61      630221.82      629851.86      296576.39      11.385516    
     30200   15.1           1005.9637     -96665.598      4160.8625      629705.6       630200.49      629714.61      629873.57      296576.39      11.385516    
     30400   15.2           999.20889     -96653.86       4132.9232      629947.42      629768.99      629668.03      629794.81      296576.39      11.385516    
     30600   15.3           1005.0376     -96656.075      4157.032       630284.23      629665.88      629775.67      629908.59      296576.39      11.385516    
     30800   15.4           994.31577     -96649.059      4112.6843      630174.21      629670.78      629608.9       629817.96      296576.39      11.385516    
     31000   15.5           1000.1513     -96641.505      4136.8212      629292.59      630319.65      630111.79      629908.01      296576.39      11.385516    
     31200   15.6           997.05249     -96677.683      4124.0039      629346.77      629515.57      629731.52      629531.29      296576.39      11.385516    
     31400   15.7           999.61871     -96661.448      4134.6183      629724.15      629640.55      629940.35      629768.35      296576.39      11.385516    
     31600   15.8           996.48861     -96649.656      4121.6716      630219.35      629312.86      630116.09      629882.77      296576.39      11.385516    
     31800   15.9           1003.3779     -96654.967      4150.167       630053.91      629872.11      629881.02      629935.68      296576.39      11.385516    
     32000   16             1001.092      -96630.513      4140.7121      630342.48      629462.7       630707.38      630170.85      296576.39      11.385516    
     32200   16.1           1004.4189     -96678.704      4154.4729      629554.95      629782.47      629826.09      629721.17      296576.39      11.385516    
     32400   16.2           999.00104     -96657.292      4132.0635      629807.54      629832.89      629610.78      629750.41      296576.39      11.385516    
     32600   16.3           1002.4485     -96684.18       4146.3229      629384.77      629330.29      629824.57      629513.21      296576.39      11.385516    
     32800   16.4           1002.7647     -96666.852      4147.6305      629677.05      629759.25      629778.73      629738.34      296576.39      11.385516    
     33000   16.5           1000.3457     -96696.819      4137.6254      628944.58      630001.97      629324.42      629423.66      296576.39      11.385516    
     33200   16.6           989.77116     -96685.619      4093.8869      629370.5       629726.71      628880.68      629325.96      296576.39      11.385516    
     33400   16.7           997.62235     -96701.904      4126.361       629253.37      629103.56      629388.65      629248.53      296576.39      11.385516    
     33600   16.8           997.1067      -96660.529      4124.2281      629772.38      629678.7       629957.31      629802.8       296576.39      11.385516    
     33800   16.9           1003.8928     -96660.635      4152.2968      629718.37      629652.53      630120.76      629830.55      296576.39      11.385516    
     34000   17             997.30933     -96655.583      4125.0662      630024.9       629701.79      629668.51      629798.4       296576.39      11.385516    
     34200   17.1           1000.3727     -96663.755      4137.7371      629742.61      629760.34      629896.31      629799.75      296576.39      11.385516    
     34400   17.2           1003.9392     -96664.908      4152.4885      629460.88      630166.01      629775.58      629800.82      296576.39      11.385516    
     34600   17.3           1000.8334     -96676.154      4139.6423      629527.71      630105.97      629175         629602.89      296576.39      11.385516    
     34800   17.4           997.04543     -96639.867      4123.9747      629508.19      629736.56      630605.31      629950.02      296576.39      11.385516    
     35000   17.5           995.38672     -96673.061      4117.114       629194         629380.72      630086.69      629553.8       296576.39      11.385516    
     35200   17.6           999.23778     -96617.698      4133.0427      629912.55      630616.97      630294.52      630274.68      296576.39      11.385516    
     35400   17.7           1001.3992     -96651.116      4141.9826      629841.98      630149.26      629526.5       629839.25      296576.39      11.385516    
     35600   17.8           1001.0994     -96666.546      4140.7427      629338.41      629938.75      630120.64      629799.27      296576.39      11.385516    
     35800   17.9           998.73121     -96650.975      4130.9474      629982.14      629477.91      630001.98      629820.68      296576.39      11.385516    
     36000   18             998.58472     -96648.378      4130.3415      630100.24      629943.2       629688.05      629910.5       296576.39      11.385516    
     36200   18.1           998.68314     -96678.933      4130.7486      629219.2       629535         629878         629544.07      296576.39      11.385516    
     36400   18.2           994.84734     -96649.91       4114.883       630062.25      629772.06      629766.02      629866.78      296576.39      11.385516    
     36600   18.3           1002.2572     -96665.326      4145.5317      630006.38      629599.98      629682.12      629762.83      296576.39      11.385516    
     36800   18.4           995.78946     -96660.575      4118.7798      629723.88      629525.38      630040.43      629763.23      296576.39      11.385516    
     37000   18.5           997.63346     -96633.372      4126.4069      629304.48      630539.11      630271.17      630038.25      296576.39      11.385516    
     37200   18.6           999.95031     -96641.531      4135.9898      630042.8       629833.18      630018.13      629964.71      296576.39      11.385516    
     37400   18.7           1001.0247     -96670.354      4140.4337      629812.97      629601.93      629595.72      629670.21      296576.39      11.385516    
     37600   18.8           1002.9559     -96650.904      4148.4216      629836.36      629900         630179.63      629972         296576.39      11.385516    
     37800   18.9           999.15665     -96632.862      4132.7071      630332.03      629646         630352.09      630110.04      296576.39      11.385516    
     38000   19             997.91075     -96649.207      4127.5538      629727.09      629817.36      630128.33      629890.93      296576.39      11.385516    
     38200   19.1           999.77824     -96643.007      4135.2782      629830.6       629399.8       630541.74      629924.04      296576.39      11.385516    
     38400   19.2           1006.6237     -96645.87       4163.5922      630309.79      629998.22      629865.31      630057.77      296576.39      11.385516    
     38600   19.3           1000.0245     -96603.138      4136.2966      630383.72      630031.55      630602.98      630339.42      296576.39      11.385516    
     38800   19.4           1005.907      -96646.387      4160.628       629734.08      629885.45      630480.82      630033.45      296576.39      11.385516    
     39000   19.5           1002.629      -96644.355      4147.0695      630003.54      630187.47      629892.35      630027.78      296576.39      11.385516    
     39200   19.6           1006.1211     -96633.448      4161.5134      629840.12      630440.03      630337.69      630205.95      296576.39      11.385516    
     39400   19.7           1004.9886     -96650.609      4156.8293      629661.56      630144.53      630242.31      630016.14      296576.39      11.385516    
     39600   19.8           1002.468      -96650.93       4146.4034      629866.54      629715.82      630268.02      629950.13      296576.39      11.385516    
     39800   19.9           1005.8606     -96671.63       4160.4362      629850.08      629922.71      629432.79      629735.19      296576.39      11.385516    
     40000   20             993.36091     -96644.217      4108.7348      630496.43      629874.97      629313.97      629895.12      296576.39      11.385516    
     40200   20.1           998.14156     -96639.069      4128.5085      630166.72      630001.28      629786.45      629984.82      296576.39      11.385516    
     40400   20.2           996.72161     -96672.827      4122.6353      630206.71      629745.23      628947.35      629633.1       296576.39      11.385516    
     40600   20.3           996.77163     -96672.254      4122.8422      629415.84      629909.64      629550.8       629625.43      296576.39      11.385516    
     40800   20.4           998.0835      -96643.432      4128.2683      630007.65      629686.6       630163.83      629952.69      296576.39      11.385516    
     41000   20.5           997.80561     -96648.231      4127.1189      630432.08      629669.46      629703.25      629934.93      296576.39      11.385516    
     41200   20.6           1005.11       -96646.353      4157.3315      630016.96      630009.31      629863.87      629963.38      296576.39      11.385516    
     41400   20.7           1000.2438     -96607.299      4137.2037      630342.46      630479.81      629911.19      630244.49      296576.39      11.385516    
     41600   20.8           1004.5135     -96650.005      4154.8641      629703.55      630448.28      629856.58      630002.8       296576.39      11.385516    
     41800   20.9           1008.0651     -96643.004      4169.5541      629526.63      630219.64      630433.92      630060.06      296576.39      11.385516    
     42000   21             1000.8522     -96609.981      4139.7204      630220.09      630658.05      630064.5       630314.21      296576.39      11.385516    
     42200   21.1           1000.8864     -96659.478      4139.8617      629907.06      629987.58      629274.31      629722.98      296576.39      11.385516    
     42400   21.2           993.84452     -96659.242      4110.7351      629824.77      629827.67      629412.93      629688.46      296576.39      11.385516    
     42600   21.3           995.92686     -96682.621      4119.3481      629191.85      629764.18      629503.8       629486.61      296576.39      11.385516    
     42800   21.4           999.92791     -96690.765      4135.8972      629755.05      629089.45      629595.83      629480.11      296576.39      11.385516    
     43000   21.5           995.71658     -96631.926      4118.4783      630369.43      629445.53      630278.22      630031.06      296576.39      11.385516    
     43200   21.6           997.29011     -96627.947      4124.9867      629724.22      630096.18      630332.27      630050.89      296576.39      11.385516    
     43400   21.7           999.61323     -96662.592      4134.5956      629456.36      629772.71      629660.24      629629.77      296576.39      11.385516    
     43600   21.8           996.80801     -96674.796      4122.9927      629600.75      629493.39      629560.69      629551.61      296576.39      11.385516    
     43800   21.9           999.49062     -96645.364      4134.0885      629994.88      630249.25      629489.25      629911.12      296576.39      11.385516    
     44000   22             1003.0956     -96700.747      4148.9993      628701.22      629634.2       629519.83      629285.08      296576.39      11.385516    
     44200   22.1           996.39326     -96658.274      4121.2772      629440.61      630008.9       629644.55      629698.02      296576.39      11.385516    
     44400   22.2           995.83963     -96659.973      4118.9873      629939.46      629786.33      629570.85      629765.55      296576.39      11.385516    
     44600   22.3           1006.211      -96649.359      4161.8852      630065.05      629913.8       629983.57      629987.47      296576.39      11.385516    
     44800   22.4           1009.0503     -96639.326      4173.6291      630040.46      630268.4       630217.32      630175.39      296576.39      11.385516    
     45000   22.5           1012.2598     -96697.404      4186.9043      629384.22      629705.3       629772.33      629620.62      296576.39      11.385516    
     45200   22.6           1001.0753     -96662.606      4140.6431      629931.11      629349.46      629870.02      629716.87      296576.39      11.385516    
     45400   22.7           998.7348      -96674.384      4130.9623      629246.07      629703.27      629925.14      629624.83      296576.39      11.385516    
     45600   22.8           995.8781      -96686.845      4119.1464      629679.95      629322.44      629552.52      629518.3       296576.39      11.385516    
     45800   22.9           997.66274     -96665.741      4126.528       629755.2       629441.82      629823.75      629673.59      296576.39      11.385516    
     46000   23             994.41722     -96658.845      4113.1039      629909.3       629459.64      629903.47      629757.47      296576.39      11.385516    
     46200   23.1           1001.8956     -96685.354      4144.0359      629786.79      629453.4       629491.17      629577.12      296576.39      11.385516    
     46400   23.2           1000.8        -96669.777      4139.5042      629376.29      630251.35      629426.52      629684.72      296576.39      11.385516    
     46600   23.3           1005.1548     -96641.185      4157.5168      630256.92      630508.3       629652.2       630139.14      296576.39      11.385516    
     46800   23.4           1004.8371     -96648.844      4156.2027      630580.26      629740.16      629485.46      629935.29      296576.39      11.385516    
     47000   23.5           1007.0803     -96628.854      4165.4809      630002.71      630157.05      630223.28      630127.68      296576.39      11.385516    
     47200   23.6           1000.0729     -96630.768      4136.4967      630376.4       629957.61      629908.31      630080.78      296576.39      11.385516    
     47400   23.7           1004.4841     -96624.174      4154.7425      629588.15      630192.4       630782.49      630187.68      296576.39      11.385516    
     47600   23.8           1007.6175     -96655.249      4167.7029      629850.39      629823.05      630210.43      629961.29      296576.39      11.385516    
     47800   23.9           992.85451     -96624.582      4106.6403      629833.98      630128.3       630115.34      630025.87      296576.39      11.385516    
     48000   24             997.88377     -96668.417      4127.4423      629429.03      629368.81      629975         629590.95      296576.39      11.385516    
     48200   24.1           1008.1313     -96665.655      4169.8279      630080.8       630175.67      629316.87      629857.78      296576.39      11.385516    
     48400   24.2           1005.5339     -96644.651      4159.0848      629984.06      630203.71      629916.64      630034.81      296576.39      11.385516    
     48600   24.3           1001.545      -96647.647      4142.586       629661.87      630371.56      629713.88      629915.77      296576.39      11.385516    
     48800   24.4           998.56926     -96650.403      4130.2776      629909.44      630130.51      629513.73      629851.23      296576.39      11.385516    
     49000   24.5           1007.5735     -96657.548      4167.5208      629925.05      630170.68      629847.65      629981.13      296576.39      11.385516    
     49200   24.6           999.76921     -96637.905      4135.2408      629641.73      630516.67      629807.4       629988.6       296576.39      11.385516    
     49400   24.7           1004.1142     -96608.875      4153.2124      630732.32      630201         630280.95      630404.76      296576.39      11.385516    
     49600   24.8           1009.8825     -96674.197      4177.0714      630038.71      629735.3       629615.65      629796.55      296576.39      11.385516    
     49800   24.9           1005.9432     -96659.931      4160.7777      630041.23      630040.71      629492.27      629858.07      296576.39      11.385516    
     50000   25             995.79283     -96643.976      4118.7937      630061.01      629955.74      629422.79      629813.18      296576.39      11.385516    
Loop time of 50.5638 on 1 procs for 50000 steps with 32000 atoms

Performance: 42.718 ns/day, 0.562 hours/ns, 988.849 timesteps/s, 31.643 Matom-step/s
97.8% CPU use with 1 MPI tasks x 1 OpenMP threads

MPI task timing breakdown:
Section |  min time  |  avg time  |  max time  |%varavg| %total
---------------------------------------------------------------
Pair    | 30.453     | 30.453     | 30.453     |   0.0 | 60.23
Neigh   | 0          | 0          | 0          |   0.0 |  0.00
Comm    | 14.917     | 14.917     | 14.917     |   0.0 | 29.50
Output  | 1.0912     | 1.0912     | 1.0912     |   0.0 |  2.16
Modify  | 2.1555     | 2.1555     | 2.1555     |   0.0 |  4.26
Other   |            | 1.947      |            |       |  3.85

Nlocal:          32000 ave       32000 max       32000 min
Histogram: 1 0 0 0 0 0 0 0 0 0
Nghost:          26825 ave       26825 max       26825 min
Histogram: 1 0 0 0 0 0 0 0 0 0
Neighs:      3.584e+06 ave   3.584e+06 max   3.584e+06 min
Histogram: 1 0 0 0 0 0 0 0 0 0

Total # of neighbors = 3584000
Ave neighs/atom = 112
Neighbor list builds = 0
Dangerous builds = 0
Total wall time: 0:00:53
