LAMMPS (10 Sep 2025)
KOKKOS mode with Kokkos version 4.6.2 is enabled
  using double precision
  using view layout = legacy
  will use up to 1 GPU(s) per node
  using 1 OpenMP thread(s) per MPI task
package kokkos
package kokkos newton on neigh half comm device
dimension       3
units           metal
atom_style      atomic
boundary        p p p

# --- Create FCC Cu lattice ---
#lattice         fcc 3.52
#region          box block 0 20 0 20 0 20
#create_box      1 box
#create_atoms    1 box
#mass            1 63.546

read_data       ../../../eos/0.77V/Cu-0.77V.lmp
Reading data file ...
  orthogonal box = (2.9368768 2.9368768 2.9368768) to (67.463123 67.463123 67.463123)
  1 by 1 by 1 MPI processor grid
  reading atoms ...
  32000 atoms
  reading velocities ...
  32000 velocities
  read_data CPU = 0.131 seconds
#change_box     all x scale _scale_ y scale _scale_ z scale _scale_ remap

neighbor        2.0 bin
neigh_modify    delay 0 every 1 check yes

pair_style      eam/alloy
pair_coeff      * * Cu-EAM-Z1622old.eam.alloy Cu

shell           "mkdir -p dumps"

variable	thold equal 2000
variable	itemp equal 2*2000
variable	runNVE equal 50000
variable	tstep equal 0.0005
variable	ph string 2000K-0.77V

timestep        ${tstep}
timestep        0.0005
thermo          200
thermo_style    custom step time temp pe ke pxx pyy pzz press vol density
#thermo_modify	norm yes

dump        	RDUMP all custom 20000 dumps/${ph}-NV-2000K-*.xyz id type x y z
dump        	RDUMP all custom 20000 dumps/2000K-0.77V-NV-2000K-*.xyz id type x y z

#NV  2000K calculation
velocity 		all create ${itemp}  23796
velocity 		all create 4000  23796

fix 			LANG all langevin ${thold} ${thold} $(300.0*dt) 33948
fix 			LANG all langevin 2000 ${thold} $(300.0*dt) 33948
fix 			LANG all langevin 2000 2000 $(300.0*dt) 33948
fix 			LANG all langevin 2000 2000 0.14999999999999999445 33948
fix 			NVE all nve
run  			${runNVE}
run  			50000
Neighbor list info ...
  update: every = 1 steps, delay = 0 steps, check = yes
  max neighbors/atom: 2000, page size: 100000
  master list distance cutoff = 7.859375
  ghost atom cutoff = 7.859375
  binsize = 7.859375, bins = 9 9 9
  1 neighbor lists, perpetual/occasional/extra = 1 0 0
  (1) pair eam/alloy/kk, perpetual
      attributes: half, newton on, kokkos_device
      pair build: half/bin/newton/kk/device
      stencil: half/bin/3d
      bin: kk/device
Per MPI rank memory allocation (min/avg/max) = 11.5 | 11.5 | 11.5 Mbytes
   Step          Time           Temp          PotEng         KinEng          Pxx            Pyy            Pzz           Press          Volume        Density    
         0   0              4000          -86907.769      16544.782      1118123.5      1117735.3      1117749.8      1117869.6      268663.83      12.568403    
       200   0.1            1971.8629     -78597.039      8156.0102      1191499.4      1191635        1191603.3      1191579.2      268663.83      12.568403    
       400   0.2            2012.449      -78820.106      8323.8822      1189035.1      1189578.8      1189826.6      1189480.2      268663.83      12.568403    
       600   0.3            2004.0532     -78826.677      8289.1556      1189210.2      1188437.3      1190042        1189229.8      268663.83      12.568403    
       800   0.4            2006.4562     -78825.629      8299.0949      1188997.8      1190614.1      1188558.7      1189390.2      268663.83      12.568403    
      1000   0.5            1994.9405     -78801.482      8251.4636      1189821.2      1189080.5      1189245.6      1189382.4      268663.83      12.568403    
      1200   0.6            1990.963      -78790.32       8235.0119      1189674.6      1190279.8      1188557.4      1189503.9      268663.83      12.568403    
      1400   0.7            1995.7278     -78821.245      8254.7199      1190663.3      1189355.1      1187577.7      1189198.7      268663.83      12.568403    
      1600   0.8            1987.8412     -78840.69       8222.0996      1188559.9      1189093.4      1188835.2      1188829.5      268663.83      12.568403    
      1800   0.9            1992.4613     -78859.151      8241.2091      1188691        1187833.7      1189495.3      1188673.3      268663.83      12.568403    
      2000   1              2001.3961     -78834.026      8278.1655      1190306.4      1187518.9      1189213.9      1189013.1      268663.83      12.568403    
      2200   1.1            2005.0017     -78781.098      8293.0789      1190872.9      1188918.6      1189239.4      1189676.9      268663.83      12.568403    
      2400   1.2            2006.9345     -78782.176      8301.0733      1190651.7      1190064.4      1189032.1      1189916.1      268663.83      12.568403    
      2600   1.3            2007.5464     -78830.854      8303.6042      1189252.5      1188697.6      1189818.8      1189256.3      268663.83      12.568403    
      2800   1.4            2002.0517     -78859.622      8280.8771      1188022.1      1189672.5      1189060.5      1188918.4      268663.83      12.568403    
      3000   1.5            1990.5198     -78813.909      8233.1789      1189520.5      1188455.2      1189501.7      1189159.1      268663.83      12.568403    
      3200   1.6            2008.7389     -78823.811      8308.5364      1188024        1190369.1      1189511        1189301.4      268663.83      12.568403    
      3400   1.7            1985.4866     -78739.603      8212.3606      1189948.9      1191006.7      1189062.8      1190006.1      268663.83      12.568403    
      3600   1.8            1998.5422     -78852.414      8266.3611      1188759.2      1188776.9      1189421.3      1188985.8      268663.83      12.568403    
      3800   1.9            2006.93       -78839.603      8301.0545      1190005.4      1189043.5      1188536.3      1189195        268663.83      12.568403    
      4000   2              2010.6096     -78817.805      8316.2742      1189752        1190838.9      1187429.6      1189340.2      268663.83      12.568403    
      4200   2.1            2009.9227     -78864.122      8313.4329      1189237.7      1189602.7      1187480.5      1188773.7      268663.83      12.568403    
      4400   2.2            1999.3034     -78749.841      8269.5094      1189672.9      1191193.7      1189729.1      1190198.6      268663.83      12.568403    
      4600   2.3            1992.6529     -78858.49       8242.0016      1188232.5      1188170.2      1189814.5      1188739.1      268663.83      12.568403    
      4800   2.4            1983.5562     -78829.596      8204.3758      1188959.4      1187675        1189850.2      1188828.2      268663.83      12.568403    
      5000   2.5            1992.7761     -78756.802      8242.5111      1189763.2      1190730.5      1189201.7      1189898.5      268663.83      12.568403    
      5200   2.6            2006.9501     -78773.143      8301.1376      1191016.1      1188873.5      1189865.9      1189918.5      268663.83      12.568403    
      5400   2.7            2002.1898     -78801.473      8281.448       1190757.6      1189985.4      1188139.5      1189627.5      268663.83      12.568403    
      5600   2.8            2003.4744     -78811.667      8286.7616      1189762.9      1189562.1      1189206.5      1189510.5      268663.83      12.568403    
      5800   2.9            2011.9503     -78742.14       8321.8197      1190020.1      1189653.4      1191454.6      1190376        268663.83      12.568403    
      6000   3              2015.8405     -78755.839      8337.9101      1190313.2      1191202.6      1189747.4      1190421.1      268663.83      12.568403    
      6200   3.1            1990.808      -78785.977      8234.3707      1190787.6      1188822.6      1189114.9      1189575        268663.83      12.568403    
      6400   3.2            1999.239      -78806.417      8269.2433      1190255.8      1188783.4      1189066.5      1189368.6      268663.83      12.568403    
      6600   3.3            1999.5971     -78797.03       8270.7242      1190675.1      1189400.7      1188023.6      1189366.5      268663.83      12.568403    
      6800   3.4            1997.5739     -78784.081      8262.3559      1189084.3      1189599.1      1190212        1189631.8      268663.83      12.568403    
      7000   3.5            2006.5903     -78750.305      8299.6494      1189863.5      1189756.4      1191518.3      1190379.4      268663.83      12.568403    
      7200   3.6            2001.7003     -78786.805      8279.4235      1187976.8      1189419.3      1191289.1      1189561.7      268663.83      12.568403    
      7400   3.7            2008.3727     -78795.598      8307.0221      1189022        1190106.7      1190278.1      1189802.2      268663.83      12.568403    
      7600   3.8            2012.2684     -78821.052      8323.1355      1188496.9      1189841.5      1189636.9      1189325.1      268663.83      12.568403    
      7800   3.9            1995.6152     -78810.392      8254.2545      1190006        1188827.5      1188754.2      1189195.9      268663.83      12.568403    
      8000   4              2000.2292     -78853.554      8273.3389      1187678.9      1189238.2      1189639.2      1188852.1      268663.83      12.568403    
      8200   4.1            1999.6451     -78816.85       8270.9226      1190111.3      1188590.2      1189192.9      1189298.1      268663.83      12.568403    
      8400   4.2            2007.5951     -78779.333      8303.8055      1190582.1      1188758.6      1190199.5      1189846.7      268663.83      12.568403    
      8600   4.3            2011.0616     -78703.145      8318.1438      1190502        1190971.4      1190997.2      1190823.5      268663.83      12.568403    
      8800   4.4            2010.8521     -78719.48       8317.2773      1190836.4      1190295.4      1191076.7      1190736.2      268663.83      12.568403    
      9000   4.5            2013.2421     -78733.778      8327.1628      1191294.4      1190516.2      1189667.2      1190492.6      268663.83      12.568403    
      9200   4.6            2007.6968     -78707.088      8304.2261      1190357.3      1190569.3      1191568.6      1190831.7      268663.83      12.568403    
      9400   4.7            2001.7974     -78723.422      8279.8251      1191119.2      1190794.8      1189676.6      1190530.2      268663.83      12.568403    
      9600   4.8            2008.2171     -78799.702      8306.3783      1190490.8      1189168.6      1189402.3      1189687.2      268663.83      12.568403    
      9800   4.9            2000.7461     -78735.903      8275.4767      1191323.4      1189317        1190136.6      1190259        268663.83      12.568403    
     10000   5              1993.6985     -78771.477      8246.3267      1189334.7      1191019.8      1188962.7      1189772.4      268663.83      12.568403    
     10200   5.1            1998.2482     -78786.425      8265.1449      1189367        1189653        1189957.8      1189659.3      268663.83      12.568403    
     10400   5.2            1998.7731     -78823.617      8267.316       1188532.5      1190779.2      1188100.9      1189137.5      268663.83      12.568403    
     10600   5.3            2001.4041     -78752.241      8278.1983      1189826.6      1189358.6      1190695.7      1189960.3      268663.83      12.568403    
     10800   5.4            2004.624      -78802.053      8291.5164      1189507.3      1190800        1188557.6      1189621.6      268663.83      12.568403    
     11000   5.5            1993.0409     -78772.547      8243.6065      1190008.1      1189251.3      1190088        1189782.5      268663.83      12.568403    
     11200   5.6            2001.7256     -78781.569      8279.5282      1189288.7      1188528.9      1191344.2      1189720.6      268663.83      12.568403    
     11400   5.7            2010.8134     -78804.928      8317.1173      1189415.5      1190063.3      1189790.4      1189756.4      268663.83      12.568403    
     11600   5.8            2003.2733     -78797.185      8285.9299      1189050.3      1189678.1      1190247        1189658.5      268663.83      12.568403    
     11800   5.9            1997.5301     -78825.178      8262.1749      1189338.7      1188277.2      1189730.1      1189115.3      268663.83      12.568403    
     12000   6              2009.1336     -78821.738      8310.1691      1189655.3      1189251.3      1189239.5      1189382        268663.83      12.568403    
     12200   6.1            1997.8425     -78772.238      8263.4668      1189906.2      1189862.8      1189857.6      1189875.5      268663.83      12.568403    
     12400   6.2            2012.3941     -78777.53       8323.6552      1189564.3      1190245.8      1190045.8      1189952        268663.83      12.568403    
     12600   6.3            2003.1169     -78799.335      8285.2828      1188991.8      1189807.2      1189887.9      1189562.3      268663.83      12.568403    
     12800   6.4            1997.3155     -78835.537      8261.2871      1190213.8      1188168.7      1189124.4      1189169        268663.83      12.568403    
     13000   6.5            1997.5774     -78854.205      8262.3705      1189454.4      1189123.4      1188283.2      1188953.7      268663.83      12.568403    
     13200   6.6            1999.3628     -78804.664      8269.7551      1189198.6      1189917.8      1188894.5      1189336.9      268663.83      12.568403    
     13400   6.7            2008.1949     -78788.432      8306.2865      1189491.8      1189187.6      1190508.7      1189729.4      268663.83      12.568403    
     13600   6.8            1993.3739     -78801.728      8244.9839      1189967.4      1188360.5      1189798.8      1189375.6      268663.83      12.568403    
     13800   6.9            1991.6255     -78845.119      8237.7521      1188959.7      1189322.2      1188931.5      1189071.1      268663.83      12.568403    
     14000   7              1994.4689     -78815.824      8249.5131      1190082.8      1188878.3      1189134.5      1189365.2      268663.83      12.568403    
     14200   7.1            1986.1652     -78796.574      8215.1673      1189548.8      1189299.1      1188903.2      1189250.3      268663.83      12.568403    
     14400   7.2            2001.117      -78847.483      8277.0107      1188030.4      1189511.3      1189130.7      1188890.8      268663.83      12.568403    
     14600   7.3            1987.3837     -78792.028      8220.2073      1188899.6      1190017.1      1189322.9      1189413.2      268663.83      12.568403    
     14800   7.4            1998.8425     -78771.495      8267.6031      1190647        1188817.5      1190034.2      1189832.9      268663.83      12.568403    
     15000   7.5            1995.1275     -78812.351      8252.2373      1190206.1      1188230        1189457.5      1189297.9      268663.83      12.568403    
     15200   7.6            1996.2777     -78818.973      8256.9948      1188974.1      1189212        1189427.7      1189204.6      268663.83      12.568403    
     15400   7.7            1994.0767     -78842.501      8247.8908      1188662.4      1190057.1      1187842.3      1188853.9      268663.83      12.568403    
     15600   7.8            1999.5739     -78799.407      8270.6282      1189248.5      1189468.3      1189701.6      1189472.8      268663.83      12.568403    
     15800   7.9            1999.9753     -78821.463      8272.2886      1189352.5      1188720.2      1189825.4      1189299.4      268663.83      12.568403    
     16000   8              1990.8391     -78789.953      8234.4996      1190029.1      1188614.7      1190117.1      1189587        268663.83      12.568403    
     16200   8.1            1989.6705     -78820.752      8229.6659      1189679.5      1188489.2      1189351.7      1189173.5      268663.83      12.568403    
     16400   8.2            1986.9437     -78800.755      8218.3873      1189328.1      1189393.1      1189187.9      1189303        268663.83      12.568403    
     16600   8.3            1979.2001     -78800.902      8186.3585      1188945.5      1189134        1189414.8      1189164.7      268663.83      12.568403    
     16800   8.4            1996.3669     -78756.536      8257.3637      1188910.8      1191287.4      1189817.8      1190005.3      268663.83      12.568403    
     17000   8.5            1999.5334     -78718.218      8270.4607      1191565.5      1190405.6      1189456.7      1190475.9      268663.83      12.568403    
     17200   8.6            2006.8928     -78767.305      8300.9006      1189415.8      1191655.1      1189322.7      1190131.2      268663.83      12.568403    
     17400   8.7            2010.1161     -78812.775      8314.233       1190605        1190171.2      1187933.9      1189570        268663.83      12.568403    
     17600   8.8            1993.6668     -78835.586      8246.1954      1188698        1188936.6      1189256.1      1188963.5      268663.83      12.568403    
     17800   8.9            2000.8189     -78813.332      8275.7778      1188667.1      1190634.1      1188535.9      1189279.1      268663.83      12.568403    
     18000   9              2003.2229     -78845.312      8285.7214      1189116.4      1190102        1188064.3      1189094.2      268663.83      12.568403    
     18200   9.1            1997.4934     -78790.307      8262.0229      1188386.4      1191397        1188978        1189587.1      268663.83      12.568403    
     18400   9.2            1995.7967     -78769.189      8255.005       1189985.8      1190021.7      1189580.7      1189862.7      268663.83      12.568403    
     18600   9.3            1998.9464     -78791.26       8268.0327      1189196.8      1189606.1      1189631.4      1189478.1      268663.83      12.568403    
     18800   9.4            2007.0715     -78809.082      8301.6398      1189804.5      1189636.2      1189077.8      1189506.2      268663.83      12.568403    
     19000   9.5            2000.518      -78805.733      8274.5335      1189732.5      1189090.9      1189781.8      1189535.1      268663.83      12.568403    
     19200   9.6            2009.9876     -78873.722      8313.7014      1187902.4      1189089.9      1189113.1      1188701.8      268663.83      12.568403    
     19400   9.7            1993.4563     -78838.241      8245.3249      1189827.4      1188807.5      1188264.1      1188966.3      268663.83      12.568403    
     19600   9.8            1987.1123     -78835.541      8219.0847      1187314.6      1189274.7      1189741.3      1188776.9      268663.83      12.568403    
     19800   9.9            1986.7175     -78835.561      8217.4516      1187722.9      1189632.5      1189365.2      1188906.9      268663.83      12.568403    
     20000   10             2003.5512     -78834.156      8287.0792      1190151.7      1188941.2      1188484.9      1189192.6      268663.83      12.568403    
     20200   10.1           1990.6132     -78778.219      8233.5649      1189537.8      1189945.9      1189354.8      1189612.8      268663.83      12.568403    
     20400   10.2           1983.1226     -78777.327      8202.5827      1189378.7      1189724.3      1189369.9      1189491        268663.83      12.568403    
     20600   10.3           1998.1604     -78785.95       8264.7819      1189841.5      1189006.9      1190116.7      1189655        268663.83      12.568403    
     20800   10.4           1997.502      -78858.594      8262.0586      1188780.7      1188573.6      1188795.2      1188716.5      268663.83      12.568403    
     21000   10.5           1986.5686     -78835.963      8216.8358      1188627.5      1188153        1189593        1188791.2      268663.83      12.568403    
     21200   10.6           2001.2347     -78822.105      8277.4976      1188884.6      1189425.9      1189469.4      1189260        268663.83      12.568403    
     21400   10.7           1989.7363     -78807.956      8229.9383      1188708.3      1189875.7      1189273.1      1189285.7      268663.83      12.568403    
     21600   10.8           1995.5016     -78815.608      8253.7846      1189236.3      1190393        1188428.9      1189352.8      268663.83      12.568403    
     21800   10.9           2003.6846     -78870.507      8287.631       1188162        1189875.8      1187945        1188661        268663.83      12.568403    
     22000   11             2007.2808     -78817.935      8302.5054      1190347        1189318.6      1188522.2      1189395.9      268663.83      12.568403    
     22200   11.1           2000.2502     -78749.105      8273.4255      1189203        1190727.3      1190493.6      1190141.3      268663.83      12.568403    
     22400   11.2           1994.7326     -78766.097      8250.6038      1191187.9      1189271.5      1189287.8      1189915.7      268663.83      12.568403    
     22600   11.3           1986.6218     -78808.82       8217.0559      1188531.5      1188908.5      1189616.6      1189018.9      268663.83      12.568403    
     22800   11.4           1985.9644     -78757.371      8214.3369      1190140.1      1188950.7      1189758        1189616.3      268663.83      12.568403    
     23000   11.5           2012.3668     -78828.9        8323.5421      1189827.3      1188501.4      1189889.5      1189406.1      268663.83      12.568403    
     23200   11.6           1998.9822     -78799.099      8268.1808      1189363.7      1188971.6      1190459.6      1189598.3      268663.83      12.568403    
     23400   11.7           2009.1651     -78822.358      8310.2993      1187736.5      1190431.6      1190059.4      1189409.2      268663.83      12.568403    
     23600   11.8           1991.7976     -78803.307      8238.4641      1189015.6      1188529.2      1190705.4      1189416.8      268663.83      12.568403    
     23800   11.9           1996.3728     -78821.477      8257.3879      1189444.9      1190009        1188637.2      1189363.7      268663.83      12.568403    
     24000   12             1991.5839     -78796.85       8237.5802      1188807.6      1189610.4      1189534.3      1189317.5      268663.83      12.568403    
     24200   12.1           2001.3798     -78834.718      8278.098       1189144.6      1188160.4      1190477        1189260.7      268663.83      12.568403    
     24400   12.2           1997.2934     -78790.855      8261.1956      1189007.1      1189882.3      1190355.8      1189748.4      268663.83      12.568403    
     24600   12.3           2006.3439     -78795.202      8298.6302      1189245.7      1189271.3      1190893.2      1189803.4      268663.83      12.568403    
     24800   12.4           1992.1202     -78798.987      8239.7984      1189372.6      1188422.7      1189906.9      1189234.1      268663.83      12.568403    
     25000   12.5           2013.2528     -78831.877      8327.207       1189696.5      1189311.7      1188900        1189302.8      268663.83      12.568403    
     25200   12.6           2002.9842     -78855.227      8284.7338      1188704        1188613.2      1188962.9      1188760        268663.83      12.568403    
     25400   12.7           1978.0719     -78836.647      8181.6919      1189068.9      1188446.8      1188506.9      1188674.2      268663.83      12.568403    
     25600   12.8           1983.6975     -78783.607      8204.9603      1189917.7      1188948.3      1189569.3      1189478.4      268663.83      12.568403    
     25800   12.9           2006.8379     -78867.81       8300.6738      1189324.7      1189210.5      1188186.3      1188907.2      268663.83      12.568403    
     26000   13             1993.1939     -78797.052      8244.2394      1189523.2      1189966.3      1188760.7      1189416.7      268663.83      12.568403    
     26200   13.1           1996.8463     -78789.34       8259.3464      1189444        1190585.3      1188456.8      1189495.4      268663.83      12.568403    
     26400   13.2           1996.9381     -78812.237      8259.7263      1190075.1      1189264.6      1188240.7      1189193.4      268663.83      12.568403    
     26600   13.3           1997.5409     -78824.011      8262.2192      1189024.2      1189897        1188640        1189187.1      268663.83      12.568403    
     26800   13.4           2007.6736     -78755.93       8304.1303      1190777        1189691.4      1190007.1      1190158.5      268663.83      12.568403    
     27000   13.5           2004.1328     -78752.93       8289.4848      1189684        1190383.9      1190004.2      1190024        268663.83      12.568403    
     27200   13.6           1993.8548     -78794.161      8246.9728      1188404.9      1190373.1      1189810.1      1189529.4      268663.83      12.568403    
     27400   13.7           1999.4539     -78800.711      8270.132       1190412.8      1189239.2      1189174.7      1189608.9      268663.83      12.568403    
     27600   13.8           2020.567      -78835.521      8357.46        1188995        1190166.3      1189094.1      1189418.5      268663.83      12.568403    
     27800   13.9           2016.7872     -78784.34       8341.826       1188783.5      1191708.1      1189719.3      1190070.3      268663.83      12.568403    
     28000   14             2015.2311     -78773.506      8335.3898      1189564.8      1190963.3      1189745        1190091        268663.83      12.568403    
     28200   14.1           2004.8278     -78804.759      8292.3595      1190318.4      1189969.5      1188632.3      1189640.1      268663.83      12.568403    
     28400   14.2           1988.8377     -78740.88       8226.2215      1190430.7      1190126.3      1189729.9      1190095.6      268663.83      12.568403    
     28600   14.3           1991.8556     -78760.685      8238.704       1190383.2      1189523.8      1189767.9      1189891.6      268663.83      12.568403    
     28800   14.4           2004.7703     -78793.58       8292.1217      1189169.9      1189655.6      1190095.9      1189640.5      268663.83      12.568403    
     29000   14.5           1989.3724     -78767.618      8228.433       1189447.7      1188698.7      1190821        1189655.8      268663.83      12.568403    
     29200   14.6           1999.0337     -78832.602      8268.3941      1189287.4      1189453.8      1188019.2      1188920.1      268663.83      12.568403    
     29400   14.7           1990.1234     -78770.856      8231.5392      1189518.2      1189388.6      1190202.6      1189703.1      268663.83      12.568403    
     29600   14.8           1989.7962     -78852.217      8230.186       1187141.2      1189295.2      1189828.2      1188754.9      268663.83      12.568403    
     29800   14.9           1982.5772     -78735.027      8200.3267      1190134.2      1190882.4      1189244.4      1190087        268663.83      12.568403    
     30000   15             2000.1007     -78838.585      8272.8071      1190086.2      1189837.2      1187192.4      1189038.6      268663.83      12.568403    
     30200   15.1           1991.6468     -78744.317      8237.8401      1190407.9      1190085.6      1189737.7      1190077.1      268663.83      12.568403    
     30400   15.2           2000.742      -78845.595      8275.46        1188515.6      1189601.8      1188738.1      1188951.9      268663.83      12.568403    
     30600   15.3           1993.3145     -78796.27       8244.7384      1188482.2      1189672.4      1190209.7      1189454.8      268663.83      12.568403    
     30800   15.4           1995.723      -78821.892      8254.7002      1188521.2      1188946.2      1190118        1189195.1      268663.83      12.568403    
     31000   15.5           1987.0517     -78838.329      8218.8341      1189246.6      1189320        1187605.1      1188723.9      268663.83      12.568403    
     31200   15.6           1987.912      -78856.482      8222.3925      1189157.8      1188780.1      1188077.1      1188671.7      268663.83      12.568403    
     31400   15.7           1995.7864     -78813.112      8254.9625      1188650.6      1189728        1189421.6      1189266.7      268663.83      12.568403    
     31600   15.8           1989.6581     -78798.835      8229.6145      1189037.7      1189011        1190037.9      1189362.2      268663.83      12.568403    
     31800   15.9           2008.8526     -78793.087      8309.0069      1190661.3      1188998        1189651.3      1189770.2      268663.83      12.568403    
     32000   16             1987.5159     -78759.7        8220.7542      1190013.5      1189485.4      1189626.1      1189708.3      268663.83      12.568403    
     32200   16.1           1996.3015     -78792.902      8257.0931      1190532.6      1188663.8      1189394.1      1189530.2      268663.83      12.568403    
     32400   16.2           2001.0622     -78731.097      8276.7841      1190220.3      1191052.4      1189599.7      1190290.8      268663.83      12.568403    
     32600   16.3           1995.8668     -78756.083      8255.2951      1190239.2      1190956.8      1188691.6      1189962.5      268663.83      12.568403    
     32800   16.4           2005.0409     -78789.592      8293.2409      1189563.9      1190774.4      1188940.2      1189759.5      268663.83      12.568403    
     33000   16.5           1998.3023     -78807.576      8265.3686      1189504.4      1188445        1190617.7      1189522.3      268663.83      12.568403    
     33200   16.6           1999.6138     -78821.927      8270.7934      1188941.9      1189293.4      1189477.7      1189237.7      268663.83      12.568403    
     33400   16.7           2009.1492     -78767.645      8310.2338      1190056.9      1188934.4      1191028.2      1190006.5      268663.83      12.568403    
     33600   16.8           2003.5388     -78783.32       8287.0278      1188837.9      1190680.8      1189540.1      1189686.2      268663.83      12.568403    
     33800   16.9           2000.7445     -78751.593      8275.4703      1190100        1189075.8      1191276.8      1190150.9      268663.83      12.568403    
     34000   17             2001.7442     -78810.85       8279.605       1189760.8      1189406.5      1188954.3      1189373.9      268663.83      12.568403    
     34200   17.1           1998.9338     -78817.285      8267.9809      1189715.1      1190029.2      1187549.7      1189098        268663.83      12.568403    
     34400   17.2           1993.469      -78793.447      8245.3773      1189180.8      1190001.2      1189008.3      1189396.7      268663.83      12.568403    
     34600   17.3           2001.8597     -78837.549      8280.083       1189569.7      1188832.3      1188942.2      1189114.8      268663.83      12.568403    
     34800   17.4           2007.2637     -78834.673      8302.4349      1188910        1189583.5      1189383        1189292.2      268663.83      12.568403    
     35000   17.5           2007.4188     -78846.548      8303.0764      1187549.3      1190057.9      1189579.9      1189062.4      268663.83      12.568403    
     35200   17.6           2006.7657     -78831.842      8300.3749      1189330.8      1189577.3      1188760.3      1189222.8      268663.83      12.568403    
     35400   17.7           2007.4286     -78806.007      8303.117       1188638.7      1189275.3      1190507.5      1189473.8      268663.83      12.568403    
     35600   17.8           2012.372      -78827.429      8323.5637      1188504.9      1190333.3      1189704.9      1189514.4      268663.83      12.568403    
     35800   17.9           1997.7295     -78786.822      8262.9995      1189119.2      1190745.5      1189251.7      1189705.5      268663.83      12.568403    
     36000   18             1989.0776     -78792.989      8227.2138      1188867.8      1188061.7      1191311.2      1189413.6      268663.83      12.568403    
     36200   18.1           1981.1525     -78800.934      8194.434       1189770        1188960.9      1188850.2      1189193.7      268663.83      12.568403    
     36400   18.2           2002.2016     -78811.766      8281.4972      1188466.8      1189921.1      1189783.8      1189390.6      268663.83      12.568403    
     36600   18.3           2000.96       -78779.949      8276.3616      1190014.3      1188588.1      1190556.3      1189719.6      268663.83      12.568403    
     36800   18.4           2009.4903     -78786.236      8311.6445      1190129.4      1190547.4      1188442.1      1189706.3      268663.83      12.568403    
     37000   18.5           2009.4664     -78759.207      8311.5456      1190399.1      1189359.3      1190852.8      1190203.7      268663.83      12.568403    
     37200   18.6           2010.6832     -78741.134      8316.5785      1191121.4      1190505.5      1189332.9      1190319.9      268663.83      12.568403    
     37400   18.7           1999.9033     -78761.659      8271.9908      1189058.5      1189991.3      1190341.9      1189797.3      268663.83      12.568403    
     37600   18.8           2005.1629     -78814.099      8293.7457      1189236.3      1189461.1      1189839.1      1189512.2      268663.83      12.568403    
     37800   18.9           2006.7431     -78758.179      8300.2816      1190123.7      1190745.4      1189337.9      1190069        268663.83      12.568403    
     38000   19             2001.2149     -78794.741      8277.4158      1189217.5      1189727.7      1190038.6      1189661.3      268663.83      12.568403    
     38200   19.1           1994.7795     -78791.576      8250.7979      1188437.7      1190493        1189547.6      1189492.8      268663.83      12.568403    
     38400   19.2           1999.0917     -78818.377      8268.6339      1188885        1188389.9      1190422.3      1189232.4      268663.83      12.568403    
     38600   19.3           1995.2279     -78790.686      8252.6526      1188499.8      1189694.1      1190841.1      1189678.3      268663.83      12.568403    
     38800   19.4           1995.1354     -78793.958      8252.2698      1189064.6      1190000.6      1189516.8      1189527.3      268663.83      12.568403    
     39000   19.5           1991.0404     -78839.46       8235.332       1188769.2      1189006.4      1189016.2      1188930.6      268663.83      12.568403    
     39200   19.6           1981.119      -78805.929      8194.2951      1190389.9      1188495.1      1188811.1      1189232        268663.83      12.568403    
     39400   19.7           1984.9476     -78782.379      8210.1312      1189608.5      1189195.4      1189882.3      1189562.1      268663.83      12.568403    
     39600   19.8           2000.2347     -78865.433      8273.3614      1189269.3      1189502.2      1187579.8      1188783.8      268663.83      12.568403    
     39800   19.9           1995.9721     -78691.779      8255.7307      1189515.7      1191100.7      1192070.9      1190895.8      268663.83      12.568403    
     40000   20             2008.4977     -78775.273      8307.5389      1189309.6      1190525.1      1190429.1      1190087.9      268663.83      12.568403    
     40200   20.1           2019.2383     -78814.954      8351.9641      1189685.6      1189477.9      1190356.4      1189840        268663.83      12.568403    
     40400   20.2           2013.3415     -78826.706      8327.5739      1189268.3      1188332.6      1190393.2      1189331.4      268663.83      12.568403    
     40600   20.3           2002.337      -78817.571      8282.057       1190106.7      1188965.9      1188852.4      1189308.3      268663.83      12.568403    
     40800   20.4           1997.9103     -78775.574      8263.7474      1191054.5      1188537.6      1189604.3      1189732.1      268663.83      12.568403    
     41000   20.5           2002.6886     -78766.039      8283.5114      1189321.3      1189398.8      1191327.7      1190015.9      268663.83      12.568403    
     41200   20.6           2015.0254     -78818.921      8334.5389      1189047.2      1189995        1189755.1      1189599.1      268663.83      12.568403    
     41400   20.7           1994.9722     -78711.444      8251.5947      1189449.4      1191149        1190925.7      1190508        268663.83      12.568403    
     41600   20.8           2014.8152     -78815.78       8333.6695      1190049.5      1188931.9      1189934.2      1189638.5      268663.83      12.568403    
     41800   20.9           2010.9996     -78812.477      8317.8872      1190716.2      1188722.3      1189140.7      1189526.4      268663.83      12.568403    
     42000   21             2007.6109     -78743.864      8303.871       1190310.4      1189689.7      1190843        1190281        268663.83      12.568403    
     42200   21.1           1996.7794     -78773.216      8259.0698      1189670.1      1190352        1189540.4      1189854.2      268663.83      12.568403    
     42400   21.2           1992.2494     -78752.823      8240.3327      1190107.9      1189376.5      1190845.2      1190109.9      268663.83      12.568403    
     42600   21.3           2005.7681     -78861.432      8296.2487      1187547.9      1189433.4      1189355.5      1188778.9      268663.83      12.568403    
     42800   21.4           2002.7549     -78910.164      8283.7856      1188128.4      1187959.2      1188617.7      1188235.1      268663.83      12.568403    
     43000   21.5           1986.9988     -78815.643      8218.6154      1188462.3      1189625.3      1188922.4      1189003.3      268663.83      12.568403    
     43200   21.6           1985.763      -78777.148      8213.5039      1189578        1189694.3      1189627.1      1189633.1      268663.83      12.568403    
     43400   21.7           1994.4611     -78755.568      8249.4809      1190169.5      1190691        1189382.4      1190080.9      268663.83      12.568403    
     43600   21.8           2009.4652     -78807.758      8311.5406      1189158.1      1189574        1189907.1      1189546.4      268663.83      12.568403    
     43800   21.9           2012.7887     -78784.484      8325.2874      1191117.3      1190081.6      1188505.9      1189901.6      268663.83      12.568403    
     44000   22             2002.9954     -78829.787      8284.7805      1190286.4      1189399        1188443.5      1189376.3      268663.83      12.568403    
     44200   22.1           2003.7437     -78807.808      8287.8754      1189864.8      1189556.7      1188796.2      1189405.9      268663.83      12.568403    
     44400   22.2           2003.0249     -78782.343      8284.9023      1189737        1191028.4      1189119.6      1189961.7      268663.83      12.568403    
     44600   22.3           2022.4634     -78851.453      8365.3039      1188922.2      1189370.5      1189703.9      1189332.2      268663.83      12.568403    
     44800   22.4           2016.9902     -78805.942      8342.6654      1189271.3      1189828.8      1190100.5      1189733.5      268663.83      12.568403    
     45000   22.5           1992.6768     -78777.768      8242.1007      1189414.9      1190063.3      1189447.7      1189642        268663.83      12.568403    
     45200   22.6           2002.4194     -78832.414      8282.3977      1188404.5      1189945.3      1188954.3      1189101.3      268663.83      12.568403    
     45400   22.7           1987.9131     -78774.553      8222.3969      1188166.4      1190954.6      1189942.9      1189688        268663.83      12.568403    
     45600   22.8           2001.8526     -78840.978      8280.0533      1188700.8      1189480        1188674.6      1188951.8      268663.83      12.568403    
     45800   22.9           1995.3185     -78787.338      8253.027       1189771.6      1189392.3      1189438.2      1189534        268663.83      12.568403    
     46000   23             1996.0747     -78781.154      8256.1551      1188590        1189456.1      1190999.4      1189681.9      268663.83      12.568403    
     46200   23.1           1993.3572     -78810.478      8244.9147      1189285.3      1189635.2      1188944.5      1189288.3      268663.83      12.568403    
     46400   23.2           2003.7522     -78801.276      8287.9106      1189977.9      1189869        1188580.8      1189475.9      268663.83      12.568403    
     46600   23.3           1996.5849     -78790.405      8258.2652      1190312.1      1189547.5      1189020.2      1189626.6      268663.83      12.568403    
     46800   23.4           1988.0278     -78776.888      8222.8712      1188828        1190158.9      1189805.4      1189597.4      268663.83      12.568403    
     47000   23.5           1987.4135     -78772.287      8220.3305      1188970.5      1190042.5      1190313.6      1189775.5      268663.83      12.568403    
     47200   23.6           2021.5608     -78873.628      8361.5704      1188706.3      1189356        1188836.2      1188966.2      268663.83      12.568403    
     47400   23.7           2010.6326     -78735.573      8316.3692      1190672.1      1190930.1      1189980.6      1190527.6      268663.83      12.568403    
     47600   23.8           2009.9369     -78781.782      8313.4915      1191151.2      1189240.5      1188984.1      1189791.9      268663.83      12.568403    
     47800   23.9           2018.4924     -78801.677      8348.879       1190002.1      1190649.8      1189045.3      1189899.1      268663.83      12.568403    
     48000   24             2009.053      -78810.801      8309.8356      1189888.8      1189066.2      1189288.1      1189414.4      268663.83      12.568403    
     48200   24.1           2007.0078     -78788.06       8301.3762      1190308.5      1189855.9      1188826.1      1189663.5      268663.83      12.568403    
     48400   24.2           1995.8809     -78810.587      8255.3535      1189527.7      1188989.9      1189366.6      1189294.7      268663.83      12.568403    
     48600   24.3           2004.2212     -78813.195      8289.8504      1190095.6      1189287.4      1188990.9      1189457.9      268663.83      12.568403    
     48800   24.4           1984.657      -78772.186      8208.9292      1189856.1      1190518.8      1188602.2      1189659        268663.83      12.568403    
     49000   24.5           2004.0124     -78804.824      8288.9868      1189358.1      1188809.7      1190214.1      1189460.6      268663.83      12.568403    
     49200   24.6           2015.226      -78734.824      8335.3686      1189985.9      1190051.1      1191339        1190458.7      268663.83      12.568403    
     49400   24.7           2014.0577     -78781.16       8330.5361      1189835.2      1190261.3      1189820.7      1189972.4      268663.83      12.568403    
     49600   24.8           2009.8146     -78816.253      8312.9861      1190269.2      1189256.6      1189098.7      1189541.5      268663.83      12.568403    
     49800   24.9           1999.7189     -78779.032      8271.2282      1190615.4      1189068.8      1189288.5      1189657.6      268663.83      12.568403    
     50000   25             1996.4935     -78855.778      8257.8872      1189016.6      1188766.1      1188512.9      1188765.2      268663.83      12.568403    
Loop time of 56.3536 on 1 procs for 50000 steps with 32000 atoms

Performance: 38.329 ns/day, 0.626 hours/ns, 887.255 timesteps/s, 28.392 Matom-step/s
99.7% CPU use with 1 MPI tasks x 1 OpenMP threads

MPI task timing breakdown:
Section |  min time  |  avg time  |  max time  |%varavg| %total
---------------------------------------------------------------
Pair    | 33.35      | 33.35      | 33.35      |   0.0 | 59.18
Neigh   | 0.086229   | 0.086229   | 0.086229   |   0.0 |  0.15
Comm    | 18.715     | 18.715     | 18.715     |   0.0 | 33.21
Output  | 0.1178     | 0.1178     | 0.1178     |   0.0 |  0.21
Modify  | 2.1282     | 2.1282     | 2.1282     |   0.0 |  3.78
Other   |            | 1.957      |            |       |  3.47

Nlocal:          32000 ave       32000 max       32000 min
Histogram: 1 0 0 0 0 0 0 0 0 0
Nghost:          27723 ave       27723 max       27723 min
Histogram: 1 0 0 0 0 0 0 0 0 0
Neighs:    3.75034e+06 ave 3.75034e+06 max 3.75034e+06 min
Histogram: 1 0 0 0 0 0 0 0 0 0

Total # of neighbors = 3750344
Ave neighs/atom = 117.19825
Neighbor list builds = 239
Dangerous builds = 0
Total wall time: 0:00:59
