LAMMPS (10 Sep 2025)
KOKKOS mode with Kokkos version 4.6.2 is enabled
  using double precision
  using view layout = legacy
  will use up to 1 GPU(s) per node
  using 1 OpenMP thread(s) per MPI task
package kokkos
package kokkos newton on neigh half comm device
dimension       3
units           metal
atom_style      atomic
boundary        p p p

# --- Create FCC Cu lattice ---
#lattice         fcc 3.52
#region          box block 0 20 0 20 0 20
#create_box      1 box
#create_atoms    1 box
#mass            1 63.546

read_data       ../../../eos/0.76V/Cu-0.76V.lmp
Reading data file ...
  orthogonal box = (3.0771488 3.0771488 3.0771488) to (67.322851 67.322851 67.322851)
  1 by 1 by 1 MPI processor grid
  reading atoms ...
  32000 atoms
  reading velocities ...
  32000 velocities
  read_data CPU = 0.152 seconds
#change_box     all x scale _scale_ y scale _scale_ z scale _scale_ remap

neighbor        2.0 bin
neigh_modify    delay 0 every 1 check yes

pair_style      eam/alloy
pair_coeff      * * Cu-EAM-Z1622old.eam.alloy Cu

shell           "mkdir -p dumps"

variable	thold equal 3000
variable	itemp equal 2*3000
variable	runNVE equal 50000
variable	tstep equal 0.0005
variable	ph string 3000K-0.76V

timestep        ${tstep}
timestep        0.0005
thermo          200
thermo_style    custom step time temp pe ke pxx pyy pzz press vol density
#thermo_modify	norm yes

dump        	RDUMP all custom 20000 dumps/${ph}-NV-3000K-*.xyz id type x y z
dump        	RDUMP all custom 20000 dumps/3000K-0.76V-NV-3000K-*.xyz id type x y z

#NV  3000K calculation
velocity 		all create ${itemp}  23796
velocity 		all create 6000  23796

fix 			LANG all langevin ${thold} ${thold} $(300.0*dt) 33948
fix 			LANG all langevin 3000 ${thold} $(300.0*dt) 33948
fix 			LANG all langevin 3000 3000 $(300.0*dt) 33948
fix 			LANG all langevin 3000 3000 0.14999999999999999445 33948
fix 			NVE all nve
run  			${runNVE}
run  			50000
Neighbor list info ...
  update: every = 1 steps, delay = 0 steps, check = yes
  max neighbors/atom: 2000, page size: 100000
  master list distance cutoff = 7.859375
  ghost atom cutoff = 7.859375
  binsize = 7.859375, bins = 9 9 9
  1 neighbor lists, perpetual/occasional/extra = 1 0 0
  (1) pair eam/alloy/kk, perpetual
      attributes: half, newton on, kokkos_device
      pair build: half/bin/newton/kk/device
      stencil: half/bin/3d
      bin: kk/device
Per MPI rank memory allocation (min/avg/max) = 11.5 | 11.5 | 11.5 Mbytes
   Step          Time           Temp          PotEng         KinEng          Pxx            Pyy            Pzz           Press          Volume        Density    
         0   0              6000          -84530.238      24817.172      1232659.8      1232069.8      1232091.8      1232273.8      265174.8       12.733772    
       200   0.1            2983.5891     -72115.689      12340.707      1339832        1342204.1      1340043.5      1340693.2      265174.8       12.733772    
       400   0.2            3000.6154     -72188.502      12411.132      1339632.4      1341182.3      1339710.4      1340175        265174.8       12.733772    
       600   0.3            2988.2487     -72258.673      12359.98       1337863.4      1338895.9      1341471.3      1339410.2      265174.8       12.733772    
       800   0.4            3008.6317     -72352.609      12444.289      1337024.2      1339240.4      1338996.9      1338420.5      265174.8       12.733772    
      1000   0.5            3003.8919     -72380.172      12424.684      1338061.6      1338425        1337481.4      1337989.3      265174.8       12.733772    
      1200   0.6            2995.6731     -72242.136      12390.689      1337634.5      1340756.2      1340469.2      1339620        265174.8       12.733772    
      1400   0.7            3002.545      -72255.01       12419.113      1338875.7      1340739.7      1339038.1      1339551.2      265174.8       12.733772    
      1600   0.8            2999.7975     -72329.254      12407.749      1337875.6      1339301.2      1338613.9      1338596.9      265174.8       12.733772    
      1800   0.9            2985.0477     -72283.644      12346.741      1338828.9      1339225.5      1338009.9      1338688.1      265174.8       12.733772    
      2000   1              3011.3166     -72213.084      12455.394      1340803.8      1339658.2      1339981.3      1340147.8      265174.8       12.733772    
      2200   1.1            3021.1746     -72243.594      12496.168      1341729.3      1340753.7      1337836.9      1340106.6      265174.8       12.733772    
      2400   1.2            3009.1932     -72192.513      12446.611      1341262.2      1341990.8      1338653        1340635.3      265174.8       12.733772    
      2600   1.3            3003.5383     -72235.866      12423.221      1341546.4      1340323.9      1337659.4      1339843.2      265174.8       12.733772    
      2800   1.4            2983.1075     -72243.401      12338.715      1341399        1338928.7      1337608        1339311.9      265174.8       12.733772    
      3000   1.5            3011.0014     -72199.804      12454.09       1339633.8      1342449.2      1339260.6      1340447.9      265174.8       12.733772    
      3200   1.6            2992.0568     -72202.714      12375.731      1339506.2      1340197.3      1340693.1      1340132.2      265174.8       12.733772    
      3400   1.7            2991.2015     -72291.239      12372.194      1338092.9      1339260.5      1339205.6      1338853        265174.8       12.733772    
      3600   1.8            3005.5271     -72296.384      12431.447      1338886.3      1339395.8      1338868        1339050        265174.8       12.733772    
      3800   1.9            3003.7027     -72278.204      12423.901      1338694.8      1339138.6      1340410.5      1339414.6      265174.8       12.733772    
      4000   2              3025.8093     -72273.536      12515.339      1337756.9      1342184.2      1339283.9      1339741.7      265174.8       12.733772    
      4200   2.1            3006.7558     -72255.936      12436.529      1339679.3      1339218.2      1340000.3      1339632.6      265174.8       12.733772    
      4400   2.2            3009.9284     -72161.958      12449.652      1342450.8      1338929.7      1340839.3      1340739.9      265174.8       12.733772    
      4600   2.3            3001.2562     -72224.871      12413.782      1341918.9      1340949        1336972.6      1339946.8      265174.8       12.733772    
      4800   2.4            2992.8984     -72246.52       12379.212      1339457.9      1339600.5      1339499.9      1339519.4      265174.8       12.733772    
      5000   2.5            3011.2349     -72343.864      12455.056      1338846.9      1338155.4      1338948.4      1338650.2      265174.8       12.733772    
      5200   2.6            2987.3396     -72191.091      12356.22       1339850.3      1339679.7      1340711.6      1340080.5      265174.8       12.733772    
      5400   2.7            3003.2636     -72279.822      12422.085      1340323.3      1338711.3      1339078.9      1339371.2      265174.8       12.733772    
      5600   2.8            2991.4401     -72305.2        12373.181      1339100.7      1338666.2      1338152.6      1338639.8      265174.8       12.733772    
      5800   2.9            3006.9223     -72282.091      12437.218      1339643.7      1338751.5      1339657.6      1339350.9      265174.8       12.733772    
      6000   3              3011.594      -72210.184      12456.541      1340224.4      1341097.4      1339371.9      1340231.2      265174.8       12.733772    
      6200   3.1            2988.6035     -72189.015      12361.448      1340388.1      1339354.2      1340752.1      1340164.8      265174.8       12.733772    
      6400   3.2            3015.5772     -72284.539      12473.016      1339138.1      1340107.9      1338975.6      1339407.2      265174.8       12.733772    
      6600   3.3            2981.9758     -72275.011      12334.034      1339540        1337142.9      1340172.9      1338952        265174.8       12.733772    
      6800   3.4            2980.7142     -72299.694      12328.816      1338291.2      1338510.3      1338917        1338572.9      265174.8       12.733772    
      7000   3.5            2996.8275     -72304.77       12395.464      1337456.9      1339762.3      1339593.2      1338937.5      265174.8       12.733772    
      7200   3.6            3007.4792     -72251.284      12439.521      1339444.4      1340312.2      1339874.5      1339877        265174.8       12.733772    
      7400   3.7            3004.3042     -72318.302      12426.389      1338358.2      1339003.5      1338822.4      1338728.1      265174.8       12.733772    
      7600   3.8            2982.8908     -72230.79       12337.819      1338343.9      1339152.2      1340424.6      1339306.9      265174.8       12.733772    
      7800   3.9            3017.5776     -72271.662      12481.29       1336656.1      1341880.1      1339891.7      1339476        265174.8       12.733772    
      8000   4              2998.5516     -72189.568      12402.595      1338217.8      1340225.9      1341975        1340139.6      265174.8       12.733772    
      8200   4.1            3020.9748     -72215.961      12495.342      1339858.9      1339960.2      1341218.3      1340345.8      265174.8       12.733772    
      8400   4.2            3023.6976     -72172.498      12506.604      1340840.2      1340869.7      1341031.8      1340913.9      265174.8       12.733772    
      8600   4.3            3030.5476     -72265.69       12534.937      1340154.7      1340632.5      1339053.7      1339947        265174.8       12.733772    
      8800   4.4            3003.108      -72218.25       12421.442      1341392.7      1339549        1338893.6      1339945.1      265174.8       12.733772    
      9000   4.5            3009.4496     -72174.961      12447.672      1340799.4      1340114.4      1341059.3      1340657.7      265174.8       12.733772    
      9200   4.6            2989.0445     -72182.536      12363.272      1337931.4      1340384.6      1342254        1340190        265174.8       12.733772    
      9400   4.7            2975.9867     -72152.251      12309.263      1339582.2      1341127.4      1340247.7      1340319.1      265174.8       12.733772    
      9600   4.8            3001.4094     -72351.254      12414.416      1338095.3      1339213.5      1338076        1338461.6      265174.8       12.733772    
      9800   4.9            2978.0101     -72292.965      12317.632      1339272.1      1339506.9      1337853.2      1338877.4      265174.8       12.733772    
     10000   5              2993.0574     -72357.639      12379.87       1337776.5      1338775.2      1338313.5      1338288.4      265174.8       12.733772    
     10200   5.1            2997.5829     -72264.568      12398.588      1337623.5      1339085.3      1341212.4      1339307.1      265174.8       12.733772    
     10400   5.2            2991.5663     -72223.941      12373.703      1338053.9      1340029.5      1340771.1      1339618.2      265174.8       12.733772    
     10600   5.3            3003.7248     -72288.259      12423.993      1338442.6      1338788.8      1340269.9      1339167.1      265174.8       12.733772    
     10800   5.4            3015.1342     -72207.508      12471.184      1340672.5      1339434.1      1340561.8      1340222.8      265174.8       12.733772    
     11000   5.5            3022.8469     -72163.786      12503.085      1339748        1340244.2      1342561.4      1340851.2      265174.8       12.733772    
     11200   5.6            3036.8885     -72217.121      12561.164      1338953.8      1341311.3      1341395        1340553.4      265174.8       12.733772    
     11400   5.7            3016.3154     -72156.011      12476.07       1339940.4      1339666.1      1343271.7      1340959.4      265174.8       12.733772    
     11600   5.8            3024.3981     -72213.196      12509.502      1341350        1339391.6      1339460.5      1340067.3      265174.8       12.733772    
     11800   5.9            2975.6511     -72262.797      12307.874      1338855.8      1337917.7      1339363        1338712.2      265174.8       12.733772    
     12000   6              2971.6246     -72309.484      12291.22       1339784.5      1338107.8      1336644.9      1338179.1      265174.8       12.733772    
     12200   6.1            2992.5192     -72283.372      12377.644      1338469.8      1339381.8      1339144.4      1338998.6      265174.8       12.733772    
     12400   6.2            2995.9661     -72264.422      12391.901      1339670.3      1338205        1340221.1      1339365.5      265174.8       12.733772    
     12600   6.3            2988.4908     -72266.298      12360.982      1338536.6      1339063.9      1340547.3      1339382.6      265174.8       12.733772    
     12800   6.4            3011.2652     -72365.743      12455.181      1339765.4      1337998.2      1337519.3      1338427.7      265174.8       12.733772    
     13000   6.5            3009.4939     -72234.83       12447.855      1341446.1      1340342.8      1338031.5      1339940.1      265174.8       12.733772    
     13200   6.6            3012.9673     -72251.029      12462.222      1339959.7      1338831.8      1340712.3      1339834.6      265174.8       12.733772    
     13400   6.7            2991.0545     -72218.013      12371.586      1339218.8      1340555.8      1339561        1339778.5      265174.8       12.733772    
     13600   6.8            2991.1667     -72346.271      12372.05       1338996.7      1336447.6      1339794.9      1338413        265174.8       12.733772    
     13800   6.9            3010.4177     -72334.684      12451.676      1337595.1      1338675.5      1339962.6      1338744.4      265174.8       12.733772    
     14000   7              2988.479      -72138.988      12360.933      1339461.5      1341386.9      1341113.1      1340653.8      265174.8       12.733772    
     14200   7.1            3002.3963     -72197.169      12418.498      1340376.1      1340836.7      1339105.3      1340106        265174.8       12.733772    
     14400   7.2            2996.5885     -72296.501      12394.475      1340152.7      1339293.8      1337330.1      1338925.5      265174.8       12.733772    
     14600   7.3            2981.5461     -72366.634      12332.257      1337040.1      1338996.7      1337677.9      1337904.9      265174.8       12.733772    
     14800   7.4            3000.023      -72268.071      12408.681      1339415.1      1338025.6      1340726.3      1339389        265174.8       12.733772    
     15000   7.5            2988.5371     -72268.028      12361.174      1340237        1340136.2      1336882.1      1339085.1      265174.8       12.733772    
     15200   7.6            3001.0825     -72296.877      12413.064      1336928.2      1339522.7      1340789.9      1339080.3      265174.8       12.733772    
     15400   7.7            3003.4709     -72217.945      12422.942      1341332.1      1339331.4      1339577.5      1340080.3      265174.8       12.733772    
     15600   7.8            3012.3636     -72200.124      12459.724      1339394.5      1340458.6      1341381.3      1340411.5      265174.8       12.733772    
     15800   7.9            3001.4386     -72220.888      12414.537      1339275.4      1338635.9      1341742.5      1339884.6      265174.8       12.733772    
     16000   8              2981.188      -72186.673      12330.776      1339872.3      1340763.7      1339033.1      1339889.7      265174.8       12.733772    
     16200   8.1            3002.2351     -72291.055      12417.831      1339724.7      1338581.1      1338844.3      1339050        265174.8       12.733772    
     16400   8.2            3006.9741     -72205.462      12437.432      1340634.4      1340660        1339802.2      1340365.6      265174.8       12.733772    
     16600   8.3            2977.377      -72278.194      12315.013      1338291.3      1338105.7      1340250.4      1338882.4      265174.8       12.733772    
     16800   8.4            3006.7251     -72280.541      12436.402      1340310.9      1339737.6      1337825.1      1339291.2      265174.8       12.733772    
     17000   8.5            3013.9662     -72214.72       12466.353      1340356.3      1338857.3      1341370.1      1340194.6      265174.8       12.733772    
     17200   8.6            3008.0583     -72277.002      12441.917      1339125.3      1339737.2      1339575.1      1339479.2      265174.8       12.733772    
     17400   8.7            3007.4992     -72225.105      12439.604      1339168.1      1339968.7      1340927        1340021.3      265174.8       12.733772    
     17600   8.8            3026.9195     -72299.993      12519.931      1339235.3      1339440.7      1339682.3      1339452.8      265174.8       12.733772    
     17800   8.9            3023.1508     -72288.555      12504.342      1339318.3      1340471.7      1338705.5      1339498.5      265174.8       12.733772    
     18000   9              2997.6215     -72299.357      12398.748      1339038.6      1340587.8      1337242.7      1338956.4      265174.8       12.733772    
     18200   9.1            2989.4273     -72230.062      12364.855      1340400.7      1339269.9      1339349.8      1339673.4      265174.8       12.733772    
     18400   9.2            3010.3555     -72336.146      12451.419      1339924.5      1338915.6      1337090.9      1338643.7      265174.8       12.733772    
     18600   9.3            2996.3371     -72272.766      12393.436      1340975.9      1339397.8      1337254.4      1339209.4      265174.8       12.733772    
     18800   9.4            3030.6906     -72380.58       12535.529      1341720.9      1337192.1      1336433.7      1338448.9      265174.8       12.733772    
     19000   9.5            2990.1161     -72284.014      12367.704      1340578.8      1337819.9      1338900.5      1339099.8      265174.8       12.733772    
     19200   9.6            3007.7733     -72202.551      12440.738      1342234.1      1339054.9      1339275.6      1340188.2      265174.8       12.733772    
     19400   9.7            2999.8595     -72307.83       12408.005      1339279.9      1338904.7      1338836.8      1339007.1      265174.8       12.733772    
     19600   9.8            2984.7022     -72279.15       12345.312      1338903.8      1339735.9      1338511.1      1339050.3      265174.8       12.733772    
     19800   9.9            3002.2722     -72326.17       12417.984      1339899.7      1338344.5      1338079.1      1338774.4      265174.8       12.733772    
     20000   10             3008.2586     -72302.544      12442.745      1340051.9      1337730.5      1339420.9      1339067.8      265174.8       12.733772    
     20200   10.1           2994.1825     -72199.476      12384.524      1339387.6      1339124.9      1341052        1339854.8      265174.8       12.733772    
     20400   10.2           3010.2376     -72295.095      12450.931      1340132.8      1338833.2      1338583.9      1339183.3      265174.8       12.733772    
     20600   10.3           3000.7795     -72253.674      12411.81       1341577.8      1337401.5      1340182.2      1339720.5      265174.8       12.733772    
     20800   10.4           2995.0028     -72278.645      12387.917      1340391.7      1338803.5      1338544.6      1339246.6      265174.8       12.733772    
     21000   10.5           2993.3421     -72317.026      12381.048      1337853.9      1339213.2      1339037.2      1338701.4      265174.8       12.733772    
     21200   10.6           3001.7374     -72332.441      12415.772      1339554.2      1338616.4      1337847.6      1338672.7      265174.8       12.733772    
     21400   10.7           2987.2881     -72275.958      12356.007      1337769.2      1340231.9      1339672.3      1339224.4      265174.8       12.733772    
     21600   10.8           3007.4673     -72308.178      12439.472      1341420.3      1337503        1338162        1339028.4      265174.8       12.733772    
     21800   10.9           3006.768      -72342.006      12436.58       1338035.9      1340154.4      1337634.2      1338608.2      265174.8       12.733772    
     22000   11             2997.5713     -72257.806      12398.541      1339650        1338758.6      1339535.2      1339314.6      265174.8       12.733772    
     22200   11.1           3008.1056     -72290.614      12442.113      1336811.7      1340560.6      1340637.9      1339336.7      265174.8       12.733772    
     22400   11.2           3007.9847     -72297.666      12441.612      1339610.6      1338475.7      1339138.8      1339075        265174.8       12.733772    
     22600   11.3           2999.1269     -72302.755      12404.975      1337351.3      1339636        1339577        1338854.8      265174.8       12.733772    
     22800   11.4           3000.195      -72300.921      12409.393      1339500.8      1337817.4      1339168.2      1338828.8      265174.8       12.733772    
     23000   11.5           3008.2884     -72325.104      12442.869      1339191.9      1337730.6      1339320.3      1338747.6      265174.8       12.733772    
     23200   11.6           3002.3796     -72253.608      12418.429      1338283.3      1339417.1      1340738.7      1339479.7      265174.8       12.733772    
     23400   11.7           3006.3308     -72358.937      12434.771      1340223.9      1336275.4      1338857.2      1338452.2      265174.8       12.733772    
     23600   11.8           2998.1862     -72266.959      12401.084      1339799.6      1338934.9      1339448.8      1339394.5      265174.8       12.733772    
     23800   11.9           3012.2303     -72390.432      12459.173      1337523.6      1339617.5      1337047.2      1338062.8      265174.8       12.733772    
     24000   12             3003.4033     -72276.432      12422.663      1338645.8      1340084.8      1339089.4      1339273.3      265174.8       12.733772    
     24200   12.1           3007.1494     -72207          12438.158      1338072        1341929        1340584.1      1340195        265174.8       12.733772    
     24400   12.2           3017.7025     -72223.251      12481.807      1338513.1      1342819.5      1339338.3      1340223.6      265174.8       12.733772    
     24600   12.3           3004.4345     -72230.173      12426.928      1339368.1      1342408        1338046.4      1339940.9      265174.8       12.733772    
     24800   12.4           3013.5938     -72359.016      12464.813      1338706.6      1340724.3      1336099.1      1338510        265174.8       12.733772    
     25000   12.5           3020.9856     -72373.414      12495.387      1337117.7      1339261.8      1338870.9      1338416.8      265174.8       12.733772    
     25200   12.6           3004.4699     -72317.623      12427.074      1337705.7      1338999.8      1339517.4      1338741        265174.8       12.733772    
     25400   12.7           3007.0314     -72364          12437.669      1337896.8      1338208.2      1338611.3      1338238.8      265174.8       12.733772    
     25600   12.8           2998.9804     -72303.196      12404.369      1339625.9      1338934.8      1338124.7      1338895.2      265174.8       12.733772    
     25800   12.9           2994.6828     -72216.414      12386.593      1341660.5      1337656.6      1339868.1      1339728.4      265174.8       12.733772    
     26000   13             2990.7745     -72240.859      12370.428      1338950.1      1340237.8      1339479.6      1339555.8      265174.8       12.733772    
     26200   13.1           2981.1675     -72360.013      12330.691      1337610.7      1339463.1      1336445.6      1337839.8      265174.8       12.733772    
     26400   13.2           3013.7307     -72268.492      12465.379      1340818.1      1338741.7      1338833        1339464.3      265174.8       12.733772    
     26600   13.3           2990.0747     -72222.078      12367.533      1340084.2      1340565        1338338.5      1339662.6      265174.8       12.733772    
     26800   13.4           3005.0334     -72238.111      12429.405      1338140.4      1339857.9      1341278        1339758.8      265174.8       12.733772    
     27000   13.5           3020.6242     -72383.037      12493.892      1338122.6      1339784.6      1336923.7      1338277        265174.8       12.733772    
     27200   13.6           3000.5105     -72387.835      12410.698      1337661.9      1338195.3      1338264.2      1338040.5      265174.8       12.733772    
     27400   13.7           2983.6845     -72343.916      12341.102      1338188        1339654.3      1336686.6      1338176.3      265174.8       12.733772    
     27600   13.8           2987.5276     -72295.37       12356.998      1338090.5      1339575.1      1338765.1      1338810.2      265174.8       12.733772    
     27800   13.9           3011.1896     -72366.624      12454.868      1339116.9      1336984.4      1339166.8      1338422.7      265174.8       12.733772    
     28000   14             2984.698      -72270.793      12345.294      1339708.3      1340011.6      1337476.9      1339065.6      265174.8       12.733772    
     28200   14.1           3020.3253     -72346.214      12492.656      1338138.1      1338825        1339122.3      1338695.1      265174.8       12.733772    
     28400   14.2           2994.1482     -72174.57       12384.382      1340649.8      1340631.8      1339347.2      1340209.6      265174.8       12.733772    
     28600   14.3           2998.4191     -72295.776      12402.047      1337974.6      1339577.5      1339460.4      1339004.2      265174.8       12.733772    
     28800   14.4           2987.5099     -72303.976      12356.925      1338789.9      1338786.4      1338519.6      1338698.7      265174.8       12.733772    
     29000   14.5           2997.0817     -72398.812      12396.515      1337204.3      1336658.5      1338856.8      1337573.2      265174.8       12.733772    
     29200   14.6           2998.913      -72251.876      12404.09       1340581.1      1340430.6      1337662.7      1339558.1      265174.8       12.733772    
     29400   14.7           2996.6457     -72272.502      12394.712      1340701.3      1337119.8      1339653.1      1339158        265174.8       12.733772    
     29600   14.8           2983.8498     -72274.751      12341.786      1340053.9      1337168.1      1339379.8      1338867.3      265174.8       12.733772    
     29800   14.9           3004.3348     -72194.733      12426.516      1339261.9      1341111        1340208.3      1340193.7      265174.8       12.733772    
     30000   15             3009.2456     -72288.401      12446.828      1338230.4      1339644.4      1339942.7      1339272.5      265174.8       12.733772    
     30200   15.1           2993.3404     -72289.327      12381.041      1337928.3      1338890.3      1340335.8      1339051.5      265174.8       12.733772    
     30400   15.2           2993.8045     -72363.382      12382.96       1338956.5      1337211.6      1338059.5      1338075.9      265174.8       12.733772    
     30600   15.3           2992.9183     -72244.948      12379.295      1339670.5      1339678.5      1338885.4      1339411.5      265174.8       12.733772    
     30800   15.4           2983.3206     -72295.356      12339.597      1337607.3      1339520.6      1338939.9      1338689.3      265174.8       12.733772    
     31000   15.5           2995.1049     -72312.173      12388.339      1339534.5      1337267.6      1338878        1338560        265174.8       12.733772    
     31200   15.6           2994.0561     -72222.554      12384.001      1337855        1339732.5      1341309.5      1339632.3      265174.8       12.733772    
     31400   15.7           2989.5899     -72194.405      12365.528      1340978.3      1338989.7      1340525.7      1340164.6      265174.8       12.733772    
     31600   15.8           2991.9198     -72270.798      12375.165      1339547.7      1339826.9      1338082.9      1339152.5      265174.8       12.733772    
     31800   15.9           3007.5567     -72326.089      12439.842      1338053.4      1340680.3      1337572.9      1338768.9      265174.8       12.733772    
     32000   16             2999.8706     -72267.565      12408.051      1337920.5      1339906.5      1340306.1      1339377.7      265174.8       12.733772    
     32200   16.1           2979.4129     -72265.514      12323.434      1337910        1340841        1338206.2      1338985.7      265174.8       12.733772    
     32400   16.2           3000.6084     -72396.879      12411.103      1338053.3      1337101.7      1338339.6      1337831.5      265174.8       12.733772    
     32600   16.3           2988.442      -72395.87       12360.78       1338243.8      1336365.6      1338357.3      1337655.6      265174.8       12.733772    
     32800   16.4           2983.1635     -72219.197      12338.947      1337609.9      1341314.1      1339950.5      1339624.8      265174.8       12.733772    
     33000   16.5           2990.1669     -72333.775      12367.915      1336245.5      1338889.5      1339797        1338310.6      265174.8       12.733772    
     33200   16.6           2993.7721     -72315.542      12382.826      1337292.4      1338529.9      1340267.5      1338696.6      265174.8       12.733772    
     33400   16.7           3008.2587     -72309.065      12442.746      1338506.8      1339506.4      1339136.1      1339049.8      265174.8       12.733772    
     33600   16.8           3012.5875     -72328.039      12460.651      1339037.7      1338252        1338981.5      1338757.1      265174.8       12.733772    
     33800   16.9           2995.6552     -72321.276      12390.615      1337062.8      1338451.7      1340464.8      1338659.8      265174.8       12.733772    
     34000   17             3021.1186     -72267.31       12495.937      1339320.9      1339882.5      1340009.8      1339737.7      265174.8       12.733772    
     34200   17.1           3001.1526     -72279.002      12413.354      1339428        1338643.7      1339726.4      1339266.1      265174.8       12.733772    
     34400   17.2           3031.7673     -72270.714      12539.982      1341345.4      1338278.1      1339600.5      1339741.3      265174.8       12.733772    
     34600   17.3           3003.0321     -72285.154      12421.128      1337927.9      1338857.3      1340622.1      1339135.8      265174.8       12.733772    
     34800   17.4           2993.8449     -72279.273      12383.128      1339870.8      1337982.1      1339617.8      1339156.9      265174.8       12.733772    
     35000   17.5           2981.2592     -72221.81       12331.071      1340264.7      1338986        1339429.7      1339560.1      265174.8       12.733772    
     35200   17.6           2983.3983     -72290.428      12339.918      1337879.3      1339413.4      1339171.9      1338821.5      265174.8       12.733772    
     35400   17.7           2987.2773     -72206.865      12355.963      1340631.5      1338766        1339683.2      1339693.5      265174.8       12.733772    
     35600   17.8           3006.7733     -72252.737      12436.602      1340200.6      1339810.4      1338720.9      1339577.3      265174.8       12.733772    
     35800   17.9           2986.4073     -72225.011      12352.364      1339668.3      1338750.8      1340474.5      1339631.2      265174.8       12.733772    
     36000   18             3006.8738     -72360.642      12437.018      1339835.7      1336390.7      1338836.1      1338354.1      265174.8       12.733772    
     36200   18.1           2979.3985     -72324.501      12323.374      1337844.6      1338592.3      1338596.7      1338344.6      265174.8       12.733772    
     36400   18.2           2960.8943     -72247.68       12246.837      1340497.2      1339157.4      1337310.9      1338988.5      265174.8       12.733772    
     36600   18.3           2960.6208     -72260.005      12245.706      1338521.9      1338610.3      1339222.5      1338784.9      265174.8       12.733772    
     36800   18.4           2994.8102     -72309.574      12387.12       1337891.7      1340239.7      1338529.4      1338886.9      265174.8       12.733772    
     37000   18.5           2988.016      -72245.171      12359.018      1339739        1340402.4      1338534.4      1339558.6      265174.8       12.733772    
     37200   18.6           3017.9861     -72356.843      12482.98       1339616.8      1339771.9      1336566.1      1338651.6      265174.8       12.733772    
     37400   18.7           3007.4364     -72298.616      12439.344      1338651.1      1339012        1339377        1339013.4      265174.8       12.733772    
     37600   18.8           3001.8351     -72261.862      12416.177      1340195.1      1338992.9      1339244.4      1339477.5      265174.8       12.733772    
     37800   18.9           3008.5564     -72340.571      12443.977      1338468.3      1339844.6      1337403.6      1338572.2      265174.8       12.733772    
     38000   19             3008.5733     -72406.792      12444.047      1337868.1      1338256.1      1337041        1337721.7      265174.8       12.733772    
     38200   19.1           2974.9272     -72308.549      12304.88       1337851.7      1339368.2      1338061.3      1338427.1      265174.8       12.733772    
     38400   19.2           2993.6787     -72299.422      12382.44       1336862.6      1340545        1339153.6      1338853.7      265174.8       12.733772    
     38600   19.3           3013.6684     -72308.922      12465.121      1338620.1      1339672.4      1338201        1338831.2      265174.8       12.733772    
     38800   19.4           2983.4158     -72183.986      12339.991      1341591.9      1340366.7      1338503.6      1340154.1      265174.8       12.733772    
     39000   19.5           3011.0837     -72323.868      12454.431      1339551.5      1338877.9      1338173.6      1338867.7      265174.8       12.733772    
     39200   19.6           2988.9165     -72221.93       12362.743      1340054.5      1339191.4      1339772.6      1339672.8      265174.8       12.733772    
     39400   19.7           3006.6965     -72266.839      12436.284      1339386.8      1340059.2      1338619.7      1339355.3      265174.8       12.733772    
     39600   19.8           2975.5164     -72281.336      12307.317      1339060.6      1339375.2      1338310.2      1338915.4      265174.8       12.733772    
     39800   19.9           3000.1385     -72304.985      12409.159      1340578.9      1337928.3      1338388.6      1338965.3      265174.8       12.733772    
     40000   20             2997.4421     -72397.867      12398.006      1337799.7      1338735.8      1336419.4      1337651.7      265174.8       12.733772    
     40200   20.1           2984.5731     -72225.199      12344.778      1339923.9      1339371.3      1338897.5      1339397.6      265174.8       12.733772    
     40400   20.2           2992.5372     -72284.187      12377.719      1340569.3      1337258.3      1338951.8      1338926.5      265174.8       12.733772    
     40600   20.3           2989.6714     -72270.662      12365.865      1339282.2      1339164.1      1339343.3      1339263.2      265174.8       12.733772    
     40800   20.4           2975.5395     -72302.571      12307.413      1337427        1338602.5      1339476        1338501.8      265174.8       12.733772    
     41000   20.5           2976.5466     -72270.211      12311.578      1340147.8      1337604.7      1338573.4      1338775.3      265174.8       12.733772    
     41200   20.6           3002.7285     -72189.312      12419.872      1341615.1      1340778.6      1338908.6      1340434.1      265174.8       12.733772    
     41400   20.7           2978.4229     -72254.663      12319.339      1339124.2      1340771.3      1337810.3      1339235.3      265174.8       12.733772    
     41600   20.8           3014.8032     -72327.24       12469.815      1335809        1339817.7      1340354.6      1338660.4      265174.8       12.733772    
     41800   20.9           3001.77       -72273.131      12415.907      1336156.6      1340355.6      1341298.6      1339270.3      265174.8       12.733772    
     42000   21             3009.5841     -72249.42       12448.228      1340727.6      1340593.9      1337956.7      1339759.4      265174.8       12.733772    
     42200   21.1           2996.819      -72261.799      12395.429      1339216.6      1338988.6      1339622.2      1339275.8      265174.8       12.733772    
     42400   21.2           3014.3042     -72311.974      12467.751      1339993.1      1337467.8      1339595.4      1339018.8      265174.8       12.733772    
     42600   21.3           2987.4767     -72224.949      12356.787      1340884.5      1337028.9      1341135.9      1339683.1      265174.8       12.733772    
     42800   21.4           3004.1806     -72293.446      12425.878      1340075.1      1337525.3      1339666.1      1339088.9      265174.8       12.733772    
     43000   21.5           2994.4133     -72273.306      12385.478      1337511.9      1338512.8      1341349.1      1339124.6      265174.8       12.733772    
     43200   21.6           2993.7098     -72224.389      12382.569      1340786.6      1338215.8      1339819.5      1339607.3      265174.8       12.733772    
     43400   21.7           3017.2576     -72204.744      12479.967      1342676.2      1340114.8      1338040        1340277        265174.8       12.733772    
     43600   21.8           3011.4699     -72288.162      12456.028      1338889.8      1340407.7      1338593.6      1339297        265174.8       12.733772    
     43800   21.9           3016.0653     -72127.275      12475.035      1338797.4      1343820        1341560.6      1341392.6      265174.8       12.733772    
     44000   22             3006.8754     -72188.549      12437.024      1340572.4      1339284.2      1341396.1      1340417.6      265174.8       12.733772    
     44200   22.1           3021.3483     -72302.841      12496.887      1341867.7      1336563.8      1339675.8      1339369.1      265174.8       12.733772    
     44400   22.2           2986.7766     -72269.551      12353.892      1338647.5      1338708        1340278.9      1339211.5      265174.8       12.733772    
     44600   22.3           2986.7026     -72275.862      12353.586      1337907.2      1339319.5      1339734.6      1338987.1      265174.8       12.733772    
     44800   22.4           3012.5124     -72332.07       12460.34       1337675.4      1339607.7      1338743.1      1338675.4      265174.8       12.733772    
     45000   22.5           2992.3792     -72342.325      12377.065      1338675        1336629.9      1339947.8      1338417.5      265174.8       12.733772    
     45200   22.6           2996.7969     -72327.061      12395.337      1338564.2      1339191.2      1338078.6      1338611.3      265174.8       12.733772    
     45400   22.7           2984.7559     -72248.704      12345.533      1341270.3      1337758        1338867.7      1339298.7      265174.8       12.733772    
     45600   22.8           2994.0266     -72328.446      12383.879      1337665.2      1338730.7      1338964.9      1338453.6      265174.8       12.733772    
     45800   22.9           2988.4124     -72293.892      12360.658      1338293.9      1339381.9      1338869.4      1338848.4      265174.8       12.733772    
     46000   23             2975.4198     -72288.678      12306.918      1340616        1338382.6      1337401.9      1338800.2      265174.8       12.733772    
     46200   23.1           2980.1665     -72286.733      12326.551      1339880.7      1336265.9      1340510.1      1338885.6      265174.8       12.733772    
     46400   23.2           2976.4849     -72331.365      12311.323      1337594.4      1338899.6      1338079.8      1338191.3      265174.8       12.733772    
     46600   23.3           2993.2386     -72263.525      12380.62       1339672.2      1338800.3      1339288.9      1339253.8      265174.8       12.733772    
     46800   23.4           2995.8404     -72404.991      12391.381      1336279.1      1336732.3      1339839.2      1337616.9      265174.8       12.733772    
     47000   23.5           2995.9466     -72264.878      12391.82       1339422.6      1338088.1      1340160.3      1339223.7      265174.8       12.733772    
     47200   23.6           3003.5588     -72322.71       12423.306      1341285.7      1338646.1      1336565.8      1338832.5      265174.8       12.733772    
     47400   23.7           3000.7542     -72204.642      12411.706      1341147.9      1338881.6      1340463        1340164.1      265174.8       12.733772    
     47600   23.8           2987.413      -72264.118      12356.524      1339645.7      1338055.8      1339593.9      1339098.5      265174.8       12.733772    
     47800   23.9           3021.5824     -72214.671      12497.855      1342059.4      1340913        1338331.7      1340434.7      265174.8       12.733772    
     48000   24             2989.7077     -72231.604      12366.015      1341051.2      1337522.2      1340031.5      1339535        265174.8       12.733772    
     48200   24.1           2989.9252     -72312.603      12366.915      1340491.4      1337283.1      1337524.7      1338433.1      265174.8       12.733772    
     48400   24.2           2995.5756     -72269.577      12390.286      1339614.9      1339488.4      1338552.6      1339218.7      265174.8       12.733772    
     48600   24.3           3010.0177     -72264.757      12450.021      1338543.7      1341153.8      1339304.7      1339667.4      265174.8       12.733772    
     48800   24.4           3001.1949     -72342.316      12413.529      1339824.1      1336744.6      1338520.3      1338363        265174.8       12.733772    
     49000   24.5           2984.7378     -72283.264      12345.459      1337479.4      1339531.1      1339059.1      1338689.8      265174.8       12.733772    
     49200   24.6           3022.5782     -72262.52       12501.974      1336810.1      1341831.2      1340398        1339679.8      265174.8       12.733772    
     49400   24.7           2995.0002     -72164.686      12387.906      1341779.7      1340517.7      1339173.8      1340490.4      265174.8       12.733772    
     49600   24.8           3004.4365     -72262.115      12426.936      1339240.7      1340447        1338958.9      1339548.9      265174.8       12.733772    
     49800   24.9           3017.9978     -72291.145      12483.029      1339571        1338961.7      1339341.8      1339291.5      265174.8       12.733772    
     50000   25             3016.0613     -72278.81       12475.019      1340629.2      1339605.2      1338121        1339451.8      265174.8       12.733772    
Loop time of 61.3093 on 1 procs for 50000 steps with 32000 atoms

Performance: 35.231 ns/day, 0.681 hours/ns, 815.537 timesteps/s, 26.097 Matom-step/s
99.8% CPU use with 1 MPI tasks x 1 OpenMP threads

MPI task timing breakdown:
Section |  min time  |  avg time  |  max time  |%varavg| %total
---------------------------------------------------------------
Pair    | 35.761     | 35.761     | 35.761     |   0.0 | 58.33
Neigh   | 0.20926    | 0.20926    | 0.20926    |   0.0 |  0.34
Comm    | 20.944     | 20.944     | 20.944     |   0.0 | 34.16
Output  | 0.11759    | 0.11759    | 0.11759    |   0.0 |  0.19
Modify  | 2.2027     | 2.2027     | 2.2027     |   0.0 |  3.59
Other   |            | 2.075      |            |       |  3.38

Nlocal:          32000 ave       32000 max       32000 min
Histogram: 1 0 0 0 0 0 0 0 0 0
Nghost:          28372 ave       28372 max       28372 min
Histogram: 1 0 0 0 0 0 0 0 0 0
Neighs:    3.82979e+06 ave 3.82979e+06 max 3.82979e+06 min
Histogram: 1 0 0 0 0 0 0 0 0 0

Total # of neighbors = 3829787
Ave neighs/atom = 119.68084
Neighbor list builds = 579
Dangerous builds = 0
Total wall time: 0:01:03
