LAMMPS (10 Sep 2025)
KOKKOS mode with Kokkos version 4.6.2 is enabled
  using double precision
  using view layout = legacy
  will use up to 1 GPU(s) per node
  using 1 OpenMP thread(s) per MPI task
package kokkos
package kokkos newton on neigh half comm device
dimension       3
units           metal
atom_style      atomic
boundary        p p p

# --- Create FCC Cu lattice ---
#lattice         fcc 3.52
#region          box block 0 20 0 20 0 20
#create_box      1 box
#create_atoms    1 box
#mass            1 63.546

read_data       ../../../eos/0.75V/Cu-0.75V.lmp
Reading data file ...
  orthogonal box = (3.218688 3.218688 3.218688) to (67.181312 67.181312 67.181312)
  1 by 1 by 1 MPI processor grid
  reading atoms ...
  32000 atoms
  reading velocities ...
  32000 velocities
  read_data CPU = 0.143 seconds
#change_box     all x scale _scale_ y scale _scale_ z scale _scale_ remap

neighbor        2.0 bin
neigh_modify    delay 0 every 1 check yes

pair_style      eam/alloy
pair_coeff      * * Cu-EAM-Z1622old.eam.alloy Cu

shell           "mkdir -p dumps"

variable	thold equal 3000
variable	itemp equal 2*3000
variable	runNVE equal 50000
variable	tstep equal 0.0005
variable	ph string 3000K-0.75V

timestep        ${tstep}
timestep        0.0005
thermo          200
thermo_style    custom step time temp pe ke pxx pyy pzz press vol density
#thermo_modify	norm yes

dump        	RDUMP all custom 20000 dumps/${ph}-NV-3000K-*.xyz id type x y z
dump        	RDUMP all custom 20000 dumps/3000K-0.75V-NV-3000K-*.xyz id type x y z

#NV  3000K calculation
velocity 		all create ${itemp}  23796
velocity 		all create 6000  23796

fix 			LANG all langevin ${thold} ${thold} $(300.0*dt) 33948
fix 			LANG all langevin 3000 ${thold} $(300.0*dt) 33948
fix 			LANG all langevin 3000 3000 $(300.0*dt) 33948
fix 			LANG all langevin 3000 3000 0.14999999999999999445 33948
fix 			NVE all nve
run  			${runNVE}
run  			50000
Neighbor list info ...
  update: every = 1 steps, delay = 0 steps, check = yes
  max neighbors/atom: 2000, page size: 100000
  master list distance cutoff = 7.859375
  ghost atom cutoff = 7.859375
  binsize = 7.859375, bins = 9 9 9
  1 neighbor lists, perpetual/occasional/extra = 1 0 0
  (1) pair eam/alloy/kk, perpetual
      attributes: half, newton on, kokkos_device
      pair build: half/bin/newton/kk/device
      stencil: half/bin/3d
      bin: kk/device
Per MPI rank memory allocation (min/avg/max) = 11.5 | 11.5 | 11.5 Mbytes
   Step          Time           Temp          PotEng         KinEng          Pxx            Pyy            Pzz           Press          Volume        Density    
         0   0              6000          -81971.719      24817.172      1319514.1      1318916.2      1318938.5      1319123        261684.99      12.903588    
       200   0.1            2997.4092     -69646.887      12397.87       1427039.2      1431010.8      1429501.2      1429183.7      261684.99      12.903588    
       400   0.2            2995.4783     -69656.376      12389.883      1428436.1      1429125.1      1429929.2      1429163.5      261684.99      12.903588    
       600   0.3            3012.8483     -69706.89       12461.729      1428464.7      1430400.5      1427638.4      1428834.5      261684.99      12.903588    
       800   0.4            3018.0068     -69709.399      12483.066      1429668        1428801.5      1428346.2      1428938.6      261684.99      12.903588    
      1000   0.5            3007.5586     -69697.196      12439.85       1430849.1      1428434.7      1427477.8      1428920.5      261684.99      12.903588    
      1200   0.6            3001.4843     -69597.097      12414.725      1432154.1      1428499        1429841        1430164.7      261684.99      12.903588    
      1400   0.7            3021.7613     -69685.775      12498.595      1429448.1      1427374.9      1431239.3      1429354.1      261684.99      12.903588    
      1600   0.8            2988.26       -69726.615      12360.027      1427461.3      1429039        1428757.4      1428419.3      261684.99      12.903588    
      1800   0.9            2990.4616     -69738.783      12369.133      1428670        1427808.9      1428510.9      1428329.9      261684.99      12.903588    
      2000   1              3018.2987     -69713.498      12484.273      1429837.7      1428692.1      1427938        1428822.6      261684.99      12.903588    
      2200   1.1            3013.5243     -69634.669      12464.525      1428294.1      1430780.5      1430457.8      1429844.1      261684.99      12.903588    
      2400   1.2            3003.7881     -69754.943      12424.254      1427455.7      1429760.2      1427391.3      1428202.4      261684.99      12.903588    
      2600   1.3            3005.31       -69681.29       12430.549      1428796.9      1430957.5      1427619.5      1429124.6      261684.99      12.903588    
      2800   1.4            3009.1832     -69627.511      12446.57       1429701.2      1429220.1      1430128.6      1429683.3      261684.99      12.903588    
      3000   1.5            2993.5869     -69660.005      12382.06       1430341.2      1429588.3      1427746.8      1429225.4      261684.99      12.903588    
      3200   1.6            3005.9348     -69736.005      12433.134      1427111.2      1429605.7      1429044.3      1428587.1      261684.99      12.903588    
      3400   1.7            3012.68       -69653.924      12461.033      1427613.1      1430520.6      1430436.7      1429523.5      261684.99      12.903588    
      3600   1.8            2999.1993     -69642.731      12405.274      1428234.4      1430409.4      1429658.2      1429434        261684.99      12.903588    
      3800   1.9            2993.1988     -69655.146      12380.455      1429846.1      1429277.1      1428437.1      1429186.7      261684.99      12.903588    
      4000   2              3007.7442     -69703.731      12440.618      1428104.8      1429969.2      1429081.3      1429051.8      261684.99      12.903588    
      4200   2.1            3015.8835     -69713.695      12474.283      1429119.3      1429237.9      1428213.9      1428857        261684.99      12.903588    
      4400   2.2            2992.0399     -69647.465      12375.662      1430639.5      1428641.5      1428705.5      1429328.9      261684.99      12.903588    
      4600   2.3            3003.3043     -69794.412      12422.253      1429500.1      1427889        1425850.8      1427746.6      261684.99      12.903588    
      4800   2.4            2998.2971     -69727.68       12401.543      1429229.9      1427946.8      1427702        1428292.9      261684.99      12.903588    
      5000   2.5            3010.2691     -69772.121      12451.061      1428924.8      1425845.7      1429715.3      1428161.9      261684.99      12.903588    
      5200   2.6            2999.2652     -69648.295      12405.547      1430197.5      1431191.4      1426827        1429405.3      261684.99      12.903588    
      5400   2.7            3001.2987     -69687.758      12413.958      1429619.2      1428854.9      1428177.1      1428883.7      261684.99      12.903588    
      5600   2.8            2997.2587     -69738.301      12397.248      1429272.6      1425800.3      1429767.8      1428280.2      261684.99      12.903588    
      5800   2.9            3016.0469     -69730.846      12474.959      1428911.5      1427844.1      1429088.7      1428614.8      261684.99      12.903588    
      6000   3              3002.1509     -69735.046      12417.483      1428323        1427147.8      1429298.3      1428256.4      261684.99      12.903588    
      6200   3.1            2989.8215     -69728.023      12366.486      1428309.4      1428231.7      1427919.2      1428153.4      261684.99      12.903588    
      6400   3.2            3000.6711     -69728.578      12411.362      1428284.9      1427857.5      1429380.3      1428507.5      261684.99      12.903588    
      6600   3.3            2978.483      -69711.561      12319.588      1427929.9      1429331.7      1427868.7      1428376.8      261684.99      12.903588    
      6800   3.4            2977.7111     -69759.68       12316.395      1425892.3      1429091.6      1428076.6      1427686.9      261684.99      12.903588    
      7000   3.5            3016.3995     -69730.585      12476.418      1429494.9      1428374.1      1428773.7      1428880.9      261684.99      12.903588    
      7200   3.6            2999.7306     -69697.624      12407.472      1427013.3      1428959.3      1430206.5      1428726.4      261684.99      12.903588    
      7400   3.7            2983.6891     -69693.56       12341.121      1430129.9      1427336.3      1427928.3      1428464.8      261684.99      12.903588    
      7600   3.8            3009.9439     -69696.39       12449.716      1430754.1      1426516.9      1429766.1      1429012.3      261684.99      12.903588    
      7800   3.9            3004.441      -69719.336      12426.955      1427534.3      1427285.6      1430933.7      1428584.5      261684.99      12.903588    
      8000   4              2997.2319     -69660.878      12397.137      1430432.1      1428546.7      1428994.4      1429324.4      261684.99      12.903588    
      8200   4.1            2994.7353     -69697.166      12386.81       1428497.2      1428570.9      1428840.9      1428636.3      261684.99      12.903588    
      8400   4.2            3021.7589     -69699.634      12498.585      1429928.7      1429820.2      1427670.5      1429139.8      261684.99      12.903588    
      8600   4.3            3017.6417     -69715.69       12481.556      1429001.7      1428746.9      1428683.3      1428810.6      261684.99      12.903588    
      8800   4.4            3022.5732     -69711.373      12501.953      1429623.5      1428144.9      1429697.5      1429155.3      261684.99      12.903588    
      9000   4.5            3001.7816     -69655.558      12415.955      1427120.7      1430647.8      1430478        1429415.5      261684.99      12.903588    
      9200   4.6            2998.7711     -69581.953      12403.503      1430698.1      1431371.4      1428696.6      1430255.4      261684.99      12.903588    
      9400   4.7            2985.8523     -69668.178      12350.068      1428512.5      1430695.1      1427653.8      1428953.8      261684.99      12.903588    
      9600   4.8            2996.3225     -69702.005      12393.375      1427897        1428652        1430025.3      1428858.1      261684.99      12.903588    
      9800   4.9            3011.0988     -69735.7        12454.493      1431531.1      1426295.4      1428206.2      1428677.6      261684.99      12.903588    
     10000   5              2981.1069     -69659.867      12330.441      1430397.9      1428002.7      1428427.5      1428942.7      261684.99      12.903588    
     10200   5.1            3003.1873     -69698.314      12421.77       1427964.5      1429526.4      1428725.8      1428738.9      261684.99      12.903588    
     10400   5.2            2998.5126     -69702.268      12402.434      1430436        1427329.8      1428298.7      1428688.2      261684.99      12.903588    
     10600   5.3            3012.8571     -69726.534      12461.766      1429990.6      1427922.5      1428531.8      1428815        261684.99      12.903588    
     10800   5.4            3004.4405     -69663.67       12426.953      1429568.8      1429029.5      1429442.1      1429346.8      261684.99      12.903588    
     11000   5.5            3009.9711     -69758.406      12449.828      1426693.8      1429912.4      1428311.7      1428306        261684.99      12.903588    
     11200   5.6            3005.1851     -69598.687      12430.033      1429260.4      1431263.9      1430150.8      1430225        261684.99      12.903588    
     11400   5.7            3025.3877     -69726.472      12513.595      1428061.1      1429325.6      1428844.6      1428743.8      261684.99      12.903588    
     11600   5.8            3004.3226     -69641.447      12426.465      1429404        1429807.6      1429273.8      1429495.1      261684.99      12.903588    
     11800   5.9            2991.5266     -69728.831      12373.538      1429420.6      1428768.7      1426365.5      1428184.9      261684.99      12.903588    
     12000   6              3003.8096     -69696.042      12424.344      1429218.8      1429804.6      1428164.4      1429062.6      261684.99      12.903588    
     12200   6.1            3022.9911     -69702.233      12503.682      1430040.5      1428931.5      1428754.1      1429242        261684.99      12.903588    
     12400   6.2            3003.1529     -69662.395      12421.627      1428719.7      1429515        1429418.6      1429217.8      261684.99      12.903588    
     12600   6.3            2990.3039     -69529.867      12368.481      1429235.1      1430959.9      1432105.4      1430766.8      261684.99      12.903588    
     12800   6.4            3014.8315     -69608.799      12469.932      1430009.6      1427722.9      1432484.2      1430072.2      261684.99      12.903588    
     13000   6.5            3016.4024     -69669.211      12476.43       1430621.4      1428163.8      1429299.2      1429361.5      261684.99      12.903588    
     13200   6.6            3012.2009     -69682.575      12459.051      1429741.3      1429066.2      1429156.2      1429321.2      261684.99      12.903588    
     13400   6.7            2993.2193     -69762.041      12380.54       1428920.7      1427376.3      1427450.6      1427915.9      261684.99      12.903588    
     13600   6.8            2997.2412     -69689.724      12397.175      1428352.3      1428622.4      1429600.9      1428858.5      261684.99      12.903588    
     13800   6.9            2987.8896     -69679.838      12358.495      1428718.9      1428803.2      1429184.3      1428902.1      261684.99      12.903588    
     14000   7              3003.5962     -69686.883      12423.461      1428251.9      1427910.5      1430528.6      1428897        261684.99      12.903588    
     14200   7.1            3008.743      -69618.545      12444.749      1429953.1      1429456.5      1430903.8      1430104.4      261684.99      12.903588    
     14400   7.2            2990.1415     -69720.887      12367.81       1426694.6      1429211.5      1429123.6      1428343.2      261684.99      12.903588    
     14600   7.3            2982.6394     -69718.774      12336.779      1426302.6      1429073.2      1429691.5      1428355.8      261684.99      12.903588    
     14800   7.4            2995.5842     -69643.639      12390.321      1427983.9      1428865        1431251        1429366.6      261684.99      12.903588    
     15000   7.5            3008.5789     -69743.698      12444.07       1428296.3      1428574.8      1428504.1      1428458.4      261684.99      12.903588    
     15200   7.6            2995.5551     -69619.681      12390.201      1428417.5      1429649.3      1430921.7      1429662.8      261684.99      12.903588    
     15400   7.7            2990.2995     -69674.375      12368.463      1429889.9      1427549.7      1429414.7      1428951.4      261684.99      12.903588    
     15600   7.8            2993.8766     -69547.032      12383.258      1431033.4      1429890        1431199.6      1430707.6      261684.99      12.903588    
     15800   7.9            3009.3019     -69652.906      12447.061      1428481.9      1429839.6      1430228.8      1429516.8      261684.99      12.903588    
     16000   8              3019.7327     -69644.632      12490.205      1429838.2      1429930.5      1429649.5      1429806.1      261684.99      12.903588    
     16200   8.1            3003.9301     -69598.216      12424.842      1430631        1431074.9      1428011.1      1429905.7      261684.99      12.903588    
     16400   8.2            3014.3573     -69624.088      12467.971      1429899.6      1430874.1      1429072.6      1429948.8      261684.99      12.903588    
     16600   8.3            2985.8118     -69767.997      12349.901      1428341.8      1428993.2      1425819.8      1427718.3      261684.99      12.903588    
     16800   8.4            2979.1657     -69709.841      12322.412      1427055.6      1428598.4      1429335.1      1428329.7      261684.99      12.903588    
     17000   8.5            3000.4299     -69662.858      12410.364      1429157.9      1429487.8      1429348.5      1429331.4      261684.99      12.903588    
     17200   8.6            3002.7274     -69609.872      12419.867      1431990.8      1427690.6      1430543.6      1430075        261684.99      12.903588    
     17400   8.7            3003.3548     -69739.018      12422.462      1428781.2      1427817.7      1428145.2      1428248        261684.99      12.903588    
     17600   8.8            3024.9805     -69774.027      12511.91       1428336.2      1429843.2      1426717.8      1428299        261684.99      12.903588    
     17800   8.9            2989.1137     -69623.745      12363.558      1429752.2      1429226.3      1430318.8      1429765.8      261684.99      12.903588    
     18000   9              3004.9787     -69686.018      12429.179      1427513.2      1428779.7      1431067.5      1429120.1      261684.99      12.903588    
     18200   9.1            3006.7274     -69665.602      12436.412      1430240.6      1428770        1428907.1      1429305.9      261684.99      12.903588    
     18400   9.2            2993.8641     -69713.427      12383.207      1428466.5      1427163.6      1430126.9      1428585.7      261684.99      12.903588    
     18600   9.3            2980.4494     -69715.698      12327.721      1427562.8      1427736.5      1429664.2      1428321.2      261684.99      12.903588    
     18800   9.4            3002.6007     -69700.376      12419.343      1428091.6      1430969.3      1427921        1428994        261684.99      12.903588    
     19000   9.5            2990.3092     -69693.407      12368.503      1428321.7      1430575        1427090.7      1428662.5      261684.99      12.903588    
     19200   9.6            2998.9149     -69656.237      12404.098      1427793.2      1430807.8      1429447.5      1429349.5      261684.99      12.903588    
     19400   9.7            3012.7793     -69676.286      12461.444      1426569        1431075        1430220.4      1429288.2      261684.99      12.903588    
     19600   9.8            3003.9373     -69648.925      12424.872      1429174.2      1428858.2      1429861.7      1429298        261684.99      12.903588    
     19800   9.9            3002.4393     -69705.879      12418.675      1428840.5      1429241.5      1428575.9      1428886        261684.99      12.903588    
     20000   10             2981.2502     -69627.364      12331.033      1432195.2      1426662.1      1429178.1      1429345.1      261684.99      12.903588    
     20200   10.1           3010.7376     -69782.29       12452.999      1428852.7      1429055.1      1425871.7      1427926.5      261684.99      12.903588    
     20400   10.2           2983.6074     -69659.375      12340.783      1428598.5      1428916.8      1429397.2      1428970.9      261684.99      12.903588    
     20600   10.3           3009.1911     -69652.409      12446.602      1428262.6      1430407.4      1429657.5      1429442.5      261684.99      12.903588    
     20800   10.4           3013.6005     -69706.259      12464.84       1429331        1430118.5      1427775.4      1429075        261684.99      12.903588    
     21000   10.5           3001.2491     -69702.147      12413.753      1426660.9      1430059.7      1429263        1428661.2      261684.99      12.903588    
     21200   10.6           3010.1343     -69787.97       12450.504      1427720.9      1426763.3      1429488.4      1427990.9      261684.99      12.903588    
     21400   10.7           2976.6021     -69688.31       12311.808      1426064.9      1428389.7      1431275.5      1428576.7      261684.99      12.903588    
     21600   10.8           3003.5995     -69826.819      12423.474      1427477.7      1428076.5      1426728.4      1427427.5      261684.99      12.903588    
     21800   10.9           2992.965      -69829.501      12379.488      1427139.3      1426191.2      1428055.8      1427128.8      261684.99      12.903588    
     22000   11             3002.146      -69719.369      12417.462      1430077.1      1428166.8      1427599.1      1428614.3      261684.99      12.903588    
     22200   11.1           2997.4593     -69734.226      12398.077      1428759.5      1428617.3      1427708        1428361.6      261684.99      12.903588    
     22400   11.2           2973.7002     -69713.429      12299.805      1426864.1      1429820.6      1427833.4      1428172.7      261684.99      12.903588    
     22600   11.3           3010.8689     -69778.209      12453.542      1426594.1      1430198        1426828.9      1427873.7      261684.99      12.903588    
     22800   11.4           2961.6217     -69740.339      12249.846      1428600.6      1427065.4      1427565.6      1427743.9      261684.99      12.903588    
     23000   11.5           2982.2784     -69717.882      12335.286      1428776.8      1427923.7      1428128.6      1428276.4      261684.99      12.903588    
     23200   11.6           2970.4698     -69729.104      12286.443      1426499.6      1429280.2      1428030.4      1427936.7      261684.99      12.903588    
     23400   11.7           2999.072      -69741.001      12404.748      1426742.4      1430256.2      1427726.7      1428241.8      261684.99      12.903588    
     23600   11.8           2979.5935     -69700.049      12324.181      1428547.4      1428560.5      1428181.4      1428429.8      261684.99      12.903588    
     23800   11.9           2986.8483     -69758.88       12354.188      1427848.9      1428787.4      1427010.3      1427882.2      261684.99      12.903588    
     24000   12             2991.539      -69705.759      12373.59       1428097        1429190.3      1428601.7      1428629.7      261684.99      12.903588    
     24200   12.1           3031.8089     -69638.774      12540.154      1429804.8      1428955        1431696.1      1430152        261684.99      12.903588    
     24400   12.2           3027.8111     -69586.467      12523.618      1431354.9      1431868.5      1428855        1430692.8      261684.99      12.903588    
     24600   12.3           2991.4823     -69576.686      12373.355      1431227.8      1429460.9      1429770.3      1430153        261684.99      12.903588    
     24800   12.4           2986.6381     -69662.627      12353.319      1429422.7      1428876.6      1428596.1      1428965.1      261684.99      12.903588    
     25000   12.5           3013.3794     -69698.089      12463.926      1427697.6      1429988.2      1429293.2      1428993        261684.99      12.903588    
     25200   12.6           2987.0611     -69684.272      12355.068      1430608.8      1427588.2      1428320.4      1428839.1      261684.99      12.903588    
     25400   12.7           2986.8153     -69728.125      12354.052      1427946        1428205        1428155.4      1428102.1      261684.99      12.903588    
     25600   12.8           2992.6181     -69722.634      12378.053      1427901.8      1428296.2      1429245.8      1428481.3      261684.99      12.903588    
     25800   12.9           3007.5459     -69801.124      12439.797      1428553.1      1428034.5      1426165.6      1427584.4      261684.99      12.903588    
     26000   13             3000.9069     -69712.75       12412.337      1428331.9      1428899.7      1428424        1428551.9      261684.99      12.903588    
     26200   13.1           3006.4516     -69643.004      12435.271      1429466.2      1430686.1      1428651.6      1429601.3      261684.99      12.903588    
     26400   13.2           3007.5438     -69762.034      12439.789      1427449.6      1428998.8      1427981.6      1428143.4      261684.99      12.903588    
     26600   13.3           2999.9533     -69818.599      12408.393      1427163        1428184.5      1426556.6      1427301.4      261684.99      12.903588    
     26800   13.4           3002.722      -69726.808      12419.845      1428365.8      1430170.5      1426906.5      1428480.9      261684.99      12.903588    
     27000   13.5           3005.2113     -69607.892      12430.141      1428436.7      1431865        1429922.5      1430074.8      261684.99      12.903588    
     27200   13.6           2993.7086     -69647.183      12382.563      1429702.8      1429714.9      1428766.8      1429394.8      261684.99      12.903588    
     27400   13.7           3009.9928     -69700.866      12449.918      1427896        1429198.8      1429381.5      1428825.4      261684.99      12.903588    
     27600   13.8           3027.3509     -69644.901      12521.715      1426501.1      1433675.9      1429701.3      1429959.4      261684.99      12.903588    
     27800   13.9           3023.6728     -69633.613      12506.501      1428058.1      1431021.2      1431229.1      1430102.8      261684.99      12.903588    
     28000   14             3013.7002     -69738.022      12465.253      1427446.4      1428606.2      1429778.1      1428610.2      261684.99      12.903588    
     28200   14.1           3011.4146     -69727.839      12455.799      1428126.9      1427962.2      1430271.2      1428786.7      261684.99      12.903588    
     28400   14.2           3002.8506     -69764.695      12420.377      1428636.4      1427284.5      1428601.8      1428174.2      261684.99      12.903588    
     28600   14.3           2992.5282     -69587.485      12377.681      1429426.1      1427443        1433396.5      1430088.5      261684.99      12.903588    
     28800   14.4           3018.7334     -69667.305      12486.071      1429056.1      1429502.2      1429807.9      1429455.4      261684.99      12.903588    
     29000   14.5           3022.6248     -69740.251      12502.167      1428927.8      1427041.4      1429939.5      1428636.3      261684.99      12.903588    
     29200   14.6           3014.4502     -69708.441      12468.355      1427692.6      1429068.2      1430120.2      1428960.3      261684.99      12.903588    
     29400   14.7           3002.7154     -69762.247      12419.817      1427978.7      1428624.5      1427707.7      1428103.7      261684.99      12.903588    
     29600   14.8           2996.476      -69728.234      12394.01       1427182.2      1429927.4      1428510.2      1428539.9      261684.99      12.903588    
     29800   14.9           2993.89       -69725.717      12383.314      1430273.1      1428851.5      1426461.7      1428528.8      261684.99      12.903588    
     30000   15             2990.6469     -69820.279      12369.9        1428025.7      1426760.5      1427190.8      1427325.7      261684.99      12.903588    
     30200   15.1           2998.1071     -69722.742      12400.757      1427464.8      1429009.4      1429373.8      1428616        261684.99      12.903588    
     30400   15.2           2968.6442     -69758.463      12278.892      1429111.5      1426760.4      1427233.4      1427701.8      261684.99      12.903588    
     30600   15.3           3011.4853     -69797.348      12456.091      1428744        1426183.2      1428554.7      1427827.3      261684.99      12.903588    
     30800   15.4           3003.8219     -69802.579      12424.394      1426599.4      1428421.7      1427513.3      1427511.5      261684.99      12.903588    
     31000   15.5           2986.5394     -69712.579      12352.911      1429213.4      1428390.3      1427471        1428358.2      261684.99      12.903588    
     31200   15.6           2996.5006     -69681.114      12394.112      1429215.8      1428863.1      1428993.3      1429024.1      261684.99      12.903588    
     31400   15.7           2992.0846     -69736.397      12375.846      1428034        1428604.6      1428128.3      1428255.6      261684.99      12.903588    
     31600   15.8           2989.939      -69774.653      12366.972      1428789.8      1426764        1427996.9      1427850.2      261684.99      12.903588    
     31800   15.9           2995.5487     -69653.445      12390.175      1430472.8      1429393.1      1428721.7      1429529.2      261684.99      12.903588    
     32000   16             2998.21       -69658.395      12401.182      1430020        1428842.7      1428907.7      1429256.8      261684.99      12.903588    
     32200   16.1           2999.4244     -69652.651      12406.205      1429179.8      1429621.8      1429278.4      1429360        261684.99      12.903588    
     32400   16.2           3013.6865     -69696.263      12465.196      1428965        1428569.7      1430060.7      1429198.5      261684.99      12.903588    
     32600   16.3           2982.7113     -69593.167      12337.077      1429300.5      1431270        1429243.2      1429937.9      261684.99      12.903588    
     32800   16.4           3007.1442     -69676.011      12438.136      1429127.9      1430437.2      1428546.5      1429370.5      261684.99      12.903588    
     33000   16.5           2993.278      -69750.818      12380.783      1427153.8      1428229.2      1428891.1      1428091.4      261684.99      12.903588    
     33200   16.6           3009.8033     -69724.878      12449.135      1427273.8      1429234        1429706.6      1428738.1      261684.99      12.903588    
     33400   16.7           3023.2396     -69722.834      12504.709      1427226.6      1431956.2      1427566.8      1428916.5      261684.99      12.903588    
     33600   16.8           3002.7856     -69696.526      12420.108      1428972.5      1428621.5      1429003.8      1428865.9      261684.99      12.903588    
     33800   16.9           2995.7384     -69687.019      12390.96       1426870.6      1429601.1      1430233.3      1428901.7      261684.99      12.903588    
     34000   17             2982.1791     -69716.815      12334.876      1430359.1      1427555.2      1427236.3      1428383.5      261684.99      12.903588    
     34200   17.1           2989.305      -69690.874      12364.349      1429080.9      1429110.4      1427914.2      1428701.9      261684.99      12.903588    
     34400   17.2           3016.4971     -69696.277      12476.822      1427335.2      1430172.8      1430307.1      1429271.7      261684.99      12.903588    
     34600   17.3           2993.2841     -69685.145      12380.808      1429828.3      1428686.2      1428369.9      1428961.4      261684.99      12.903588    
     34800   17.4           3006.1158     -69725.06       12433.882      1427966.1      1428184.3      1429654.9      1428601.8      261684.99      12.903588    
     35000   17.5           3021.0778     -69627.075      12495.768      1429191.5      1429296.7      1431302.9      1429930.4      261684.99      12.903588    
     35200   17.6           3014.1197     -69585.819      12466.988      1429276.5      1429618.6      1431802.8      1430232.6      261684.99      12.903588    
     35400   17.7           3010.6934     -69612.641      12452.816      1430190.4      1429563.4      1430281.1      1430011.6      261684.99      12.903588    
     35600   17.8           3010.5883     -69676.909      12452.381      1428675        1430608.4      1428262.5      1429182        261684.99      12.903588    
     35800   17.9           3002.5322     -69821.837      12419.06       1426184        1428703.7      1427339.2      1427408.9      261684.99      12.903588    
     36000   18             2972.6332     -69745.379      12295.392      1428293.7      1426417.2      1428846.8      1427852.6      261684.99      12.903588    
     36200   18.1           2981.4771     -69739.671      12331.972      1428627.1      1427792.9      1427754.7      1428058.3      261684.99      12.903588    
     36400   18.2           2983.9516     -69696.562      12342.207      1429154        1427644.9      1429099.6      1428632.8      261684.99      12.903588    
     36600   18.3           2975.0828     -69791.392      12305.524      1428235.5      1426655.4      1426709.3      1427200.1      261684.99      12.903588    
     36800   18.4           3002.6327     -69750.956      12419.475      1429005.2      1427118.4      1428502.7      1428208.8      261684.99      12.903588    
     37000   18.5           3012.3598     -69693.088      12459.709      1428029.9      1429561.6      1429639.9      1429077.2      261684.99      12.903588    
     37200   18.6           3018.8771     -69677.381      12486.665      1430605.3      1428755.1      1428556.8      1429305.8      261684.99      12.903588    
     37400   18.7           3010.2146     -69773.776      12450.836      1426947.6      1429686.8      1427904.2      1428179.5      261684.99      12.903588    
     37600   18.8           3019.9477     -69722.913      12491.094      1430343.6      1427439.1      1429459        1429080.6      261684.99      12.903588    
     37800   18.9           3001.1462     -69731.192      12413.327      1427301.9      1428447.7      1429675.1      1428474.9      261684.99      12.903588    
     38000   19             2996.8265     -69689.06       12395.46       1428615        1428441.4      1429811.1      1428955.8      261684.99      12.903588    
     38200   19.1           2992.1603     -69819.958      12376.16       1426858        1427949.8      1426619.5      1427142.4      261684.99      12.903588    
     38400   19.2           2988.3017     -69761.142      12360.199      1426993.4      1428516.6      1428237.6      1427915.8      261684.99      12.903588    
     38600   19.3           2993.7114     -69668.17       12382.575      1432254.9      1426473        1428403.6      1429043.9      261684.99      12.903588    
     38800   19.4           2996.6529     -69699.085      12394.742      1428479.7      1428937.7      1428539.2      1428652.2      261684.99      12.903588    
     39000   19.5           3015.2366     -69840.602      12471.608      1425943.4      1428993.9      1426970.3      1427302.5      261684.99      12.903588    
     39200   19.6           3010.3228     -69737.944      12451.283      1428429.1      1428891        1427661        1428327        261684.99      12.903588    
     39400   19.7           2992.4399     -69663.649      12377.316      1429375.6      1429833        1428148.8      1429119.1      261684.99      12.903588    
     39600   19.8           2982.2278     -69697.442      12335.077      1430711.3      1428340.5      1426502.2      1428518        261684.99      12.903588    
     39800   19.9           2992.1374     -69708.184      12376.065      1428384.9      1428879.1      1428924.9      1428729.6      261684.99      12.903588    
     40000   20             3000.9402     -69692.893      12412.475      1428926.4      1428959.6      1429280.7      1429055.6      261684.99      12.903588    
     40200   20.1           2997.5728     -69735.063      12398.547      1431245.9      1428532        1425426.4      1428401.4      261684.99      12.903588    
     40400   20.2           2985.5596     -69659.665      12348.858      1427245.3      1431050.5      1429053.3      1429116.4      261684.99      12.903588    
     40600   20.3           3003.123      -69739.089      12421.503      1426272.6      1429079.5      1430086.6      1428479.6      261684.99      12.903588    
     40800   20.4           2991.2603     -69700.741      12372.437      1427392.7      1428028.6      1430853.5      1428758.3      261684.99      12.903588    
     41000   20.5           3003.3981     -69667.844      12422.641      1428320.1      1431403.7      1428664.7      1429462.8      261684.99      12.903588    
     41200   20.6           3018.0514     -69773.401      12483.25       1428946.6      1428360.6      1427534.1      1428280.4      261684.99      12.903588    
     41400   20.7           2993.0072     -69644.84       12379.662      1430599.7      1427967.4      1429478.8      1429348.6      261684.99      12.903588    
     41600   20.8           3001.2078     -69657.526      12413.582      1429373.2      1429386.2      1429431.2      1429396.9      261684.99      12.903588    
     41800   20.9           3001.038      -69651.696      12412.88       1432040.8      1429278.6      1426797.5      1429372.3      261684.99      12.903588    
     42000   21             3008.6256     -69651.636      12444.263      1428592.2      1429700.7      1430594.8      1429629.2      261684.99      12.903588    
     42200   21.1           3018.2062     -69620.844      12483.89       1429297.1      1428947.5      1432162.7      1430135.8      261684.99      12.903588    
     42400   21.2           3004.1624     -69699.555      12425.803      1427789.8      1429897.7      1428944.7      1428877.4      261684.99      12.903588    
     42600   21.3           3012.8367     -69737.181      12461.681      1427767.4      1429924.5      1428279.6      1428657.2      261684.99      12.903588    
     42800   21.4           3004.024      -69755.825      12425.23       1427460.3      1429034        1428649.8      1428381.4      261684.99      12.903588    
     43000   21.5           3001.4873     -69676.469      12414.738      1430189.6      1428237.3      1429249.7      1429225.5      261684.99      12.903588    
     43200   21.6           2993.583      -69680.129      12382.044      1428759.8      1428178.9      1430298.7      1429079.1      261684.99      12.903588    
     43400   21.7           3007.2426     -69730.884      12438.543      1427955.7      1429244.7      1428650.3      1428616.9      261684.99      12.903588    
     43600   21.8           3003.3242     -69667.667      12422.336      1429086.9      1428541.5      1430391.3      1429339.9      261684.99      12.903588    
     43800   21.9           3010.7211     -69607.05       12452.931      1430660.1      1430233.5      1429497.4      1430130.3      261684.99      12.903588    
     44000   22             3003.1715     -69597.092      12421.704      1427977.5      1433099.9      1429932.1      1430336.5      261684.99      12.903588    
     44200   22.1           3008.9388     -69718.785      12445.559      1425855        1431843.7      1428353.5      1428684.1      261684.99      12.903588    
     44400   22.2           2989.0646     -69672.254      12363.355      1429281.9      1429659.6      1427796.8      1428912.8      261684.99      12.903588    
     44600   22.3           3003.5891     -69684.437      12423.431      1427844.8      1428987.7      1430220.3      1429017.6      261684.99      12.903588    
     44800   22.4           3001.5941     -69695.622      12415.179      1429230        1428124.1      1429977        1429110.4      261684.99      12.903588    
     45000   22.5           3003.0133     -69636.503      12421.05       1429081.8      1429863.7      1429893.9      1429613.1      261684.99      12.903588    
     45200   22.6           3005.8016     -69708.429      12432.583      1429452.1      1428264.4      1429085.8      1428934.1      261684.99      12.903588    
     45400   22.7           3009.8211     -69662.23       12449.208      1428554.1      1428776.9      1430721.9      1429351        261684.99      12.903588    
     45600   22.8           3003.4334     -69623.681      12422.787      1430005.8      1429120.9      1430371.5      1429832.7      261684.99      12.903588    
     45800   22.9           2989.3396     -69674.191      12364.493      1429082.2      1427035.8      1431045.7      1429054.6      261684.99      12.903588    
     46000   23             2966.66       -69668.549      12270.685      1430596.9      1426837        1428724        1428719.3      261684.99      12.903588    
     46200   23.1           2991.8396     -69729.369      12374.833      1430506.7      1427327.4      1426966.5      1428266.9      261684.99      12.903588    
     46400   23.2           2997.9877     -69708.08       12400.263      1428557.8      1428778.8      1428909        1428748.5      261684.99      12.903588    
     46600   23.3           3006.4057     -69774.088      12435.081      1428033.5      1428438.3      1427752.3      1428074.7      261684.99      12.903588    
     46800   23.4           2962.4476     -69675.734      12253.262      1429451.6      1427960        1427956.5      1428456        261684.99      12.903588    
     47000   23.5           3000.6121     -69803.017      12411.118      1427068.9      1426260.9      1429498.3      1427609.4      261684.99      12.903588    
     47200   23.6           3008.7243     -69764.986      12444.671      1427940.4      1428332.7      1428056.5      1428109.9      261684.99      12.903588    
     47400   23.7           2969.8306     -69699.231      12283.8        1428094.4      1429068        1427709.2      1428290.5      261684.99      12.903588    
     47600   23.8           2982.9832     -69717.708      12338.202      1427078.3      1429051.2      1429052.1      1428393.9      261684.99      12.903588    
     47800   23.9           2979.2667     -69753.787      12322.829      1427170.5      1429319.4      1426541.8      1427677.3      261684.99      12.903588    
     48000   24             2986.3442     -69719.928      12352.103      1428736.1      1428738.5      1427949.8      1428474.8      261684.99      12.903588    
     48200   24.1           2994.6007     -69677.507      12386.253      1428012.8      1428031.3      1430951.7      1428998.6      261684.99      12.903588    
     48400   24.2           3004.396      -69794.549      12426.769      1426144.9      1427500.3      1429662        1427769.1      261684.99      12.903588    
     48600   24.3           3011.0759     -69808.677      12454.398      1428007.8      1427725.4      1427406.7      1427713.3      261684.99      12.903588    
     48800   24.4           3002.0496     -69740.269      12417.064      1427838.2      1427430.1      1429342.4      1428203.6      261684.99      12.903588    
     49000   24.5           2979.3436     -69671.989      12323.147      1429571.6      1428163.7      1428562.6      1428766        261684.99      12.903588    
     49200   24.6           3000.5974     -69648.997      12411.057      1430811.7      1428821.7      1428258.6      1429297.3      261684.99      12.903588    
     49400   24.7           3009.4862     -69670.683      12447.823      1428980.1      1427956.8      1431148.9      1429361.9      261684.99      12.903588    
     49600   24.8           3004.3663     -69700.377      12426.646      1427555.6      1429980.7      1429273.6      1428936.6      261684.99      12.903588    
     49800   24.9           3007.4504     -69718.49       12439.402      1428597.1      1428931.3      1429016.2      1428848.2      261684.99      12.903588    
     50000   25             3005.9812     -69727.18       12433.326      1429215.9      1427966.4      1428510.1      1428564.1      261684.99      12.903588    
Loop time of 62.749 on 1 procs for 50000 steps with 32000 atoms

Performance: 34.423 ns/day, 0.697 hours/ns, 796.825 timesteps/s, 25.498 Matom-step/s
99.8% CPU use with 1 MPI tasks x 1 OpenMP threads

MPI task timing breakdown:
Section |  min time  |  avg time  |  max time  |%varavg| %total
---------------------------------------------------------------
Pair    | 36.526     | 36.526     | 36.526     |   0.0 | 58.21
Neigh   | 0.20485    | 0.20485    | 0.20485    |   0.0 |  0.33
Comm    | 21.635     | 21.635     | 21.635     |   0.0 | 34.48
Output  | 0.11874    | 0.11874    | 0.11874    |   0.0 |  0.19
Modify  | 2.1959     | 2.1959     | 2.1959     |   0.0 |  3.50
Other   |            | 2.069      |            |       |  3.30

Nlocal:          32000 ave       32000 max       32000 min
Histogram: 1 0 0 0 0 0 0 0 0 0
Nghost:          28680 ave       28680 max       28680 min
Histogram: 1 0 0 0 0 0 0 0 0 0
Neighs:    3.88724e+06 ave 3.88724e+06 max 3.88724e+06 min
Histogram: 1 0 0 0 0 0 0 0 0 0

Total # of neighbors = 3887244
Ave neighs/atom = 121.47638
Neighbor list builds = 567
Dangerous builds = 0
Total wall time: 0:01:05
