LAMMPS (10 Sep 2025)
KOKKOS mode with Kokkos version 4.6.2 is enabled
  using double precision
  using view layout = legacy
  will use up to 1 GPU(s) per node
  using 1 OpenMP thread(s) per MPI task
package kokkos
package kokkos newton on neigh half comm device
dimension       3
units           metal
atom_style      atomic
boundary        p p p

# --- Create FCC Cu lattice ---
#lattice         fcc 3.52
#region          box block 0 20 0 20 0 20
#create_box      1 box
#create_atoms    1 box
#mass            1 63.546

read_data       ../../../eos/0.74V/Cu-0.74V.lmp
Reading data file ...
  orthogonal box = (3.3614592 3.3614592 3.3614592) to (67.038541 67.038541 67.038541)
  1 by 1 by 1 MPI processor grid
  reading atoms ...
  32000 atoms
  reading velocities ...
  32000 velocities
  read_data CPU = 0.154 seconds
#change_box     all x scale _scale_ y scale _scale_ z scale _scale_ remap

neighbor        2.0 bin
neigh_modify    delay 0 every 1 check yes

pair_style      eam/alloy
pair_coeff      * * Cu-EAM-Z1622old.eam.alloy Cu

shell           "mkdir -p dumps"

variable	thold equal 3000
variable	itemp equal 2*3000
variable	runNVE equal 50000
variable	tstep equal 0.0005
variable	ph string 3000K-0.74V

timestep        ${tstep}
timestep        0.0005
thermo          200
thermo_style    custom step time temp pe ke pxx pyy pzz press vol density
#thermo_modify	norm yes

dump        	RDUMP all custom 20000 dumps/${ph}-NV-3000K-*.xyz id type x y z
dump        	RDUMP all custom 20000 dumps/3000K-0.74V-NV-3000K-*.xyz id type x y z

#NV  3000K calculation
velocity 		all create ${itemp}  23796
velocity 		all create 6000  23796

fix 			LANG all langevin ${thold} ${thold} $(300.0*dt) 33948
fix 			LANG all langevin 3000 ${thold} $(300.0*dt) 33948
fix 			LANG all langevin 3000 3000 $(300.0*dt) 33948
fix 			LANG all langevin 3000 3000 0.14999999999999999445 33948
fix 			NVE all nve
run  			${runNVE}
run  			50000
Neighbor list info ...
  update: every = 1 steps, delay = 0 steps, check = yes
  max neighbors/atom: 2000, page size: 100000
  master list distance cutoff = 7.859375
  ghost atom cutoff = 7.859375
  binsize = 7.859375, bins = 9 9 9
  1 neighbor lists, perpetual/occasional/extra = 1 0 0
  (1) pair eam/alloy/kk, perpetual
      attributes: half, newton on, kokkos_device
      pair build: half/bin/newton/kk/device
      stencil: half/bin/3d
      bin: kk/device
Per MPI rank memory allocation (min/avg/max) = 11.5 | 11.5 | 11.5 Mbytes
   Step          Time           Temp          PotEng         KinEng          Pxx            Pyy            Pzz           Press          Volume        Density    
         0   0              6000          -79221.652      24817.172      1411845.8      1411239.9      1411262.5      1411449.4      258195.97      13.077955    
       200   0.1            2999.9939     -66939.025      12408.561      1524018.4      1524689.3      1522581.6      1523763.1      258195.97      13.077955    
       400   0.2            2997.574      -66932.547      12398.552      1523342.8      1525279.9      1523328.3      1523983.7      258195.97      13.077955    
       600   0.3            2982.5976     -66999.968      12336.606      1522756.1      1523030.2      1523160.3      1522982.2      258195.97      13.077955    
       800   0.4            2997.891      -66934.374      12399.863      1524053.8      1525006.3      1522551        1523870.4      258195.97      13.077955    
      1000   0.5            3001.2882     -66991.485      12413.914      1524314.9      1524474.2      1521309.8      1523366.3      258195.97      13.077955    
      1200   0.6            2992.6023     -66864.865      12377.988      1522616.5      1525493.3      1527014.6      1525041.5      258195.97      13.077955    
      1400   0.7            3023.5864     -66962.149      12506.144      1523784.8      1523718.9      1525274.4      1524259.4      258195.97      13.077955    
      1600   0.8            3007.844      -66913.771      12441.031      1524716.1      1524603.4      1524067        1524462.2      258195.97      13.077955    
      1800   0.9            3023.3809     -66983.934      12505.294      1523470.2      1523213        1524197.3      1523626.8      258195.97      13.077955    
      2000   1              3020.3146     -66881.376      12492.611      1524938        1526176.4      1523851.4      1524988.6      258195.97      13.077955    
      2200   1.1            2994.8421     -66841.899      12387.252      1526386.2      1524329.5      1524781        1525165.6      258195.97      13.077955    
      2400   1.2            2988.7335     -66913.203      12361.986      1524934.1      1522442.2      1524781.1      1524052.5      258195.97      13.077955    
      2600   1.3            3011.131      -66931.495      12454.626      1525575.4      1523107.3      1524001.8      1524228.2      258195.97      13.077955    
      2800   1.4            3003.153      -66933.315      12421.628      1524557.1      1523470.2      1524195.9      1524074.4      258195.97      13.077955    
      3000   1.5            2989.451      -66932.221      12364.953      1525495.6      1524044.2      1521845.4      1523795.1      258195.97      13.077955    
      3200   1.6            2998.9914     -66889.621      12404.415      1523753.6      1527625.4      1522234.2      1524537.7      258195.97      13.077955    
      3400   1.7            3005.78       -66880.989      12432.494      1525494.2      1525292.3      1523773.9      1524853.5      258195.97      13.077955    
      3600   1.8            3015.3254     -66906.499      12471.975      1526052.7      1524106.3      1523825.8      1524661.6      258195.97      13.077955    
      3800   1.9            2989.7208     -66966.181      12366.069      1522432.6      1523762.6      1524130.6      1523441.9      258195.97      13.077955    
      4000   2              3011.0839     -66953.337      12454.431      1521616        1524854.6      1525694.4      1524055        258195.97      13.077955    
      4200   2.1            3002.2574     -66908.854      12417.923      1523940.9      1523715.9      1525227.9      1524294.9      258195.97      13.077955    
      4400   2.2            2997.8665     -66867.995      12399.762      1523424.4      1525870.9      1524774.5      1524689.9      258195.97      13.077955    
      4600   2.3            2998.5826     -66954.739      12402.723      1524659.2      1524472.7      1521852.2      1523661.3      258195.97      13.077955    
      4800   2.4            2998.657      -66870.711      12403.031      1524539.2      1525383.1      1524322.2      1524748.2      258195.97      13.077955    
      5000   2.5            3012.5126     -66927.785      12460.341      1524389.7      1525277        1523499.4      1524388.7      258195.97      13.077955    
      5200   2.6            2987.0179     -66824.07       12354.89       1524315.4      1527348.9      1523869.2      1525177.8      258195.97      13.077955    
      5400   2.7            3004.3834     -66891.917      12426.717      1524431.6      1524079.3      1525447.5      1524652.8      258195.97      13.077955    
      5600   2.8            2980.5013     -66900.681      12327.936      1522431        1524285.7      1525652        1524122.9      258195.97      13.077955    
      5800   2.9            2991.5008     -66955.829      12373.432      1522100.8      1521139        1527270.9      1523503.6      258195.97      13.077955    
      6000   3              3002.1944     -66935.445      12417.663      1525029.6      1524299.1      1523051.7      1524126.8      258195.97      13.077955    
      6200   3.1            2971.7196     -66907.39       12291.613      1522350.2      1525055.8      1524173.6      1523859.9      258195.97      13.077955    
      6400   3.2            2998.0601     -66973.379      12400.562      1524499.6      1523217.1      1522400.7      1523372.5      258195.97      13.077955    
      6600   3.3            2992.3797     -66952.951      12377.067      1523499.3      1523497.9      1524076.4      1523691.2      258195.97      13.077955    
      6800   3.4            2991.8338     -66991.081      12374.809      1523480.4      1524743.8      1521824.3      1523349.5      258195.97      13.077955    
      7000   3.5            3006.4164     -66934.645      12435.125      1523525.9      1524460.1      1523978.2      1523988        258195.97      13.077955    
      7200   3.6            3002.3199     -66955.532      12418.182      1524938.1      1522286.3      1524221        1523815.1      258195.97      13.077955    
      7400   3.7            3021.1896     -66995.729      12496.23       1522546.8      1524716.3      1523634.5      1523632.5      258195.97      13.077955    
      7600   3.8            3011.1306     -66896.381      12454.625      1525566.7      1525803.6      1522899.3      1524756.5      258195.97      13.077955    
      7800   3.9            3007.9945     -66948.376      12441.653      1523393.9      1525743.4      1522767.1      1523968.1      258195.97      13.077955    
      8000   4              2994.1747     -66998.517      12384.491      1525075.2      1521778.5      1522858.6      1523237.4      258195.97      13.077955    
      8200   4.1            3003.464      -66933.802      12422.914      1524359.9      1524373.1      1523620.8      1524117.9      258195.97      13.077955    
      8400   4.2            3023.5182     -66865.862      12505.862      1524674.9      1525203.1      1526156        1525344.7      258195.97      13.077955    
      8600   4.3            3018.3972     -66936.515      12484.68       1524667.9      1524384        1523773.2      1524275        258195.97      13.077955    
      8800   4.4            2990.824      -66918.601      12370.632      1523779.1      1522290        1525994.3      1524021.1      258195.97      13.077955    
      9000   4.5            2999.8361     -66961.3        12407.908      1520795        1525549.6      1525091.2      1523811.9      258195.97      13.077955    
      9200   4.6            3004.3836     -66997.341      12426.718      1523393.9      1523178        1523500.9      1523357.6      258195.97      13.077955    
      9400   4.7            2986.2217     -67002.579      12351.596      1523815.1      1521259.5      1523783.6      1522952.7      258195.97      13.077955    
      9600   4.8            2985.4202     -67094.819      12348.281      1522285.3      1521388.6      1521369.3      1521681.1      258195.97      13.077955    
      9800   4.9            2988.5394     -67047.697      12361.183      1522194.7      1522250.6      1523021.3      1522488.9      258195.97      13.077955    
     10000   5              2969.5014     -66913.115      12282.438      1523632.6      1525279.6      1523053.3      1523988.5      258195.97      13.077955    
     10200   5.1            2997.9243     -66972.027      12400.001      1524078.9      1523643.8      1523207.3      1523643.3      258195.97      13.077955    
     10400   5.2            2995.4641     -66999.075      12389.825      1523920.4      1522465.9      1523146.6      1523177.6      258195.97      13.077955    
     10600   5.3            2985.001      -66956.351      12346.547      1523532.9      1524502        1522974.8      1523669.9      258195.97      13.077955    
     10800   5.4            3005.2894     -66969.152      12430.464      1523590.2      1523892        1523366.6      1523616.3      258195.97      13.077955    
     11000   5.5            3032.1427     -66957.687      12541.534      1523587.4      1523107.1      1525787.5      1524160.7      258195.97      13.077955    
     11200   5.6            3002.8558     -66916.313      12420.398      1522425        1527226.1      1523491.2      1524380.8      258195.97      13.077955    
     11400   5.7            2986.5103     -66925.697      12352.79       1523547.8      1524064.2      1524265.9      1523959.3      258195.97      13.077955    
     11600   5.8            3012.2402     -66981.543      12459.214      1524771.4      1522329.5      1523579.2      1523560        258195.97      13.077955    
     11800   5.9            2983.4109     -66957.515      12339.97       1522504.8      1524126.3      1523720.2      1523450.5      258195.97      13.077955    
     12000   6              3012.6813     -67013.42       12461.038      1523827.5      1522549.2      1523638.6      1523338.4      258195.97      13.077955    
     12200   6.1            2999.5854     -66937.353      12406.871      1524336.3      1522928.4      1524892.9      1524052.5      258195.97      13.077955    
     12400   6.2            2988.0451     -66917.16       12359.139      1522594.6      1525766.6      1523862.5      1524074.6      258195.97      13.077955    
     12600   6.3            2992.2013     -66952.748      12376.329      1524856.1      1520537.6      1525191.6      1523528.5      258195.97      13.077955    
     12800   6.4            2991.9213     -66900.51       12375.171      1525187.7      1524252.3      1523512.2      1524317.4      258195.97      13.077955    
     13000   6.5            2997.9884     -66885.597      12400.266      1525098.3      1523918.9      1524652.3      1524556.5      258195.97      13.077955    
     13200   6.6            2999.1287     -66982.111      12404.982      1526134.9      1521722.4      1522532.4      1523463.2      258195.97      13.077955    
     13400   6.7            2989.2457     -66984.986      12364.104      1524437.7      1522786        1522876.8      1523366.8      258195.97      13.077955    
     13600   6.8            2989.4603     -67013.382      12364.992      1524813.7      1522270        1521901.8      1522995.2      258195.97      13.077955    
     13800   6.9            3006.3538     -67029.368      12434.867      1524904.3      1521925        1521807        1522878.8      258195.97      13.077955    
     14000   7              2995.6588     -66889.439      12390.63       1525033.1      1526644        1522133.9      1524603.7      258195.97      13.077955    
     14200   7.1            3019.8036     -66966.233      12490.498      1523788.4      1524686.9      1523741.6      1524072.3      258195.97      13.077955    
     14400   7.2            3003.1256     -66974.529      12421.514      1525213.9      1522160.6      1523507.7      1523627.4      258195.97      13.077955    
     14600   7.3            3013.767      -66941.616      12465.529      1524676.9      1524937.4      1523187.9      1524267.4      258195.97      13.077955    
     14800   7.4            3015.9995     -66876.543      12474.763      1525817.5      1524400.4      1524694.7      1524970.9      258195.97      13.077955    
     15000   7.5            3005.1574     -66941.795      12429.918      1523729.1      1526701.9      1521463.8      1523964.9      258195.97      13.077955    
     15200   7.6            3011.1989     -66928.544      12454.907      1524363.1      1525052.3      1523401.2      1524272.2      258195.97      13.077955    
     15400   7.7            3002.7462     -66897.097      12419.945      1523957.2      1521843.6      1527966.8      1524589.2      258195.97      13.077955    
     15600   7.8            3007.3698     -66936.735      12439.069      1522289.8      1524691.6      1525015.1      1523998.8      258195.97      13.077955    
     15800   7.9            3004.8241     -66944.232      12428.54       1521685.1      1527074.8      1523840        1524199.9      258195.97      13.077955    
     16000   8              3003.6384     -66858.279      12423.635      1526100.6      1523676        1525400.9      1525059.2      258195.97      13.077955    
     16200   8.1            2998.0399     -66939.669      12400.479      1525273.9      1522863.6      1524368.4      1524168.6      258195.97      13.077955    
     16400   8.2            3008.5443     -66940.596      12443.927      1524419.2      1523495.5      1524389        1524101.2      258195.97      13.077955    
     16600   8.3            2982.0026     -66992.061      12334.145      1522141.3      1523721.6      1523331.9      1523064.9      258195.97      13.077955    
     16800   8.4            3004.2377     -66992.552      12426.114      1523466.1      1525494.6      1521703.2      1523554.6      258195.97      13.077955    
     17000   8.5            2995.7951     -67008.23       12391.194      1522168.2      1523461.2      1523284.8      1522971.4      258195.97      13.077955    
     17200   8.6            3014.2449     -66968.386      12467.506      1523545.1      1524750.8      1522933.2      1523743        258195.97      13.077955    
     17400   8.7            3008.8624     -66904.732      12445.243      1523542.3      1524705.6      1525457.3      1524568.4      258195.97      13.077955    
     17600   8.8            2996.2165     -66909.992      12392.937      1524260.8      1523380.2      1525157.1      1524266        258195.97      13.077955    
     17800   8.9            2995.611      -66882.758      12390.433      1526495.9      1522558.7      1524961.9      1524672.2      258195.97      13.077955    
     18000   9              3008.2785     -66974.073      12442.828      1524918.9      1523495        1523084.9      1523833        258195.97      13.077955    
     18200   9.1            2985.5228     -66978.669      12348.705      1521882.1      1524413.5      1523138.9      1523144.8      258195.97      13.077955    
     18400   9.2            3005.8326     -67018.663      12432.711      1522791.6      1523311.6      1523466.7      1523190        258195.97      13.077955    
     18600   9.3            2969.5163     -66962.505      12282.5        1522339.6      1524208.4      1522961.8      1523169.9      258195.97      13.077955    
     18800   9.4            2993.2423     -66968.15       12380.635      1522477.6      1524113.6      1523934.3      1523508.5      258195.97      13.077955    
     19000   9.5            3000.9787     -67009.06       12412.634      1521900.1      1523917.4      1523308.7      1523042.1      258195.97      13.077955    
     19200   9.6            3008.7875     -66965.479      12444.933      1522927.3      1524975.4      1523541.4      1523814.7      258195.97      13.077955    
     19400   9.7            2993.5218     -66963.181      12381.791      1522036.8      1525799.9      1523008.9      1523615.2      258195.97      13.077955    
     19600   9.8            3014.5527     -66917.407      12468.779      1523987        1525166.7      1523942.4      1524365.4      258195.97      13.077955    
     19800   9.9            2994.6067     -66872.17       12386.278      1524847        1525870.6      1523949.5      1524889        258195.97      13.077955    
     20000   10             3018.4479     -67000.12       12484.89       1524440.4      1523638.9      1522736.9      1523605.4      258195.97      13.077955    
     20200   10.1           2997.6236     -66955.957      12398.757      1524007.5      1525202.5      1521769.9      1523660        258195.97      13.077955    
     20400   10.2           2998.2888     -67020.962      12401.508      1523282.4      1524544.2      1521203.4      1523010        258195.97      13.077955    
     20600   10.3           3007.4131     -66886.652      12439.248      1524719.9      1525096.8      1524664.8      1524827.2      258195.97      13.077955    
     20800   10.4           3007.9376     -66907.002      12441.418      1525670.9      1524022.6      1523592.2      1524428.6      258195.97      13.077955    
     21000   10.5           2972.0227     -66910.121      12292.867      1523694.2      1524062.9      1523800.1      1523852.4      258195.97      13.077955    
     21200   10.6           2986.4914     -66932.78       12352.712      1522600.5      1523128.4      1525628.4      1523785.8      258195.97      13.077955    
     21400   10.7           2984.3273     -66840.248      12343.761      1526375.8      1522852.9      1525926.2      1525051.6      258195.97      13.077955    
     21600   10.8           3012.7968     -66958.263      12461.516      1526763.8      1521258.6      1524034.4      1524018.9      258195.97      13.077955    
     21800   10.9           3031.1928     -67017.17       12537.606      1523154.3      1523774.6      1523827.3      1523585.4      258195.97      13.077955    
     22000   11             2983.2936     -67042.966      12339.485      1521773.8      1521517.7      1523850.6      1522380.7      258195.97      13.077955    
     22200   11.1           2968.7163     -67000.431      12279.191      1524700.8      1522029.2      1521108.6      1522612.9      258195.97      13.077955    
     22400   11.2           2969.5931     -67035.52       12282.817      1522297.7      1522662.9      1521692.5      1522217.7      258195.97      13.077955    
     22600   11.3           2993.6359     -66940.263      12382.263      1523290.5      1525252.7      1522755.6      1523766.3      258195.97      13.077955    
     22800   11.4           3014.3962     -67009.576      12468.132      1522538.9      1524137.5      1523413.3      1523363.2      258195.97      13.077955    
     23000   11.5           2995.876      -66882.261      12391.529      1523790.4      1525351.9      1525029.4      1524723.9      258195.97      13.077955    
     23200   11.6           2981.2907     -66946.811      12331.201      1524473.9      1522323.9      1523711.9      1523503.2      258195.97      13.077955    
     23400   11.7           3005.1717     -66919.626      12429.977      1523189.8      1524530        1525183.4      1524301.1      258195.97      13.077955    
     23600   11.8           3007.9622     -66923.151      12441.519      1524317.5      1523855        1524630.7      1524267.7      258195.97      13.077955    
     23800   11.9           2988.1796     -66916.588      12359.695      1522861.3      1524210.4      1525169.3      1524080.4      258195.97      13.077955    
     24000   12             2992.9263     -66930.409      12379.328      1523753.6      1522842.7      1525013.8      1523870        258195.97      13.077955    
     24200   12.1           3009.3862     -66911.419      12447.409      1523170.2      1524913.6      1525038.6      1524374.1      258195.97      13.077955    
     24400   12.2           3005.8021     -66839.738      12432.585      1524614.3      1525416.3      1526469.7      1525500.1      258195.97      13.077955    
     24600   12.3           3012.2785     -66808.185      12459.372      1526370.6      1525764.1      1525702.7      1525945.8      258195.97      13.077955    
     24800   12.4           2997.397      -66912.14       12397.819      1523266.7      1525246.1      1524024        1524178.9      258195.97      13.077955    
     25000   12.5           2994.2716     -66910.243      12384.892      1524048        1524072.6      1524583.1      1524234.5      258195.97      13.077955    
     25200   12.6           3012.3671     -67001.859      12459.739      1521667.2      1523735.8      1524732.4      1523378.5      258195.97      13.077955    
     25400   12.7           2991.1503     -66901.074      12371.982      1523545.3      1525846.5      1523685.2      1524359        258195.97      13.077955    
     25600   12.8           2994.4131     -66961.05       12385.478      1524212.2      1523165.2      1523127.5      1523501.6      258195.97      13.077955    
     25800   12.9           2998.5135     -66916.773      12402.438      1523568.6      1524847.1      1523866.8      1524094.2      258195.97      13.077955    
     26000   13             3024.8856     -66959.966      12511.518      1524385.7      1522066.2      1526005.3      1524152.4      258195.97      13.077955    
     26200   13.1           3008.8046     -66938.118      12445.004      1523933.7      1524470.9      1523798.9      1524067.8      258195.97      13.077955    
     26400   13.2           2994.6586     -66932.931      12386.493      1523362.1      1524425.5      1524046.4      1523944.7      258195.97      13.077955    
     26600   13.3           2984.3192     -66946.376      12343.727      1523468.1      1522741.5      1524208        1523472.5      258195.97      13.077955    
     26800   13.4           3008.7587     -66970.762      12444.814      1523599.9      1524474.3      1523323.5      1523799.2      258195.97      13.077955    
     27000   13.5           3014.6133     -66966.683      12469.03       1522565        1525201.5      1524007        1523924.5      258195.97      13.077955    
     27200   13.6           2992.3904     -66921.276      12377.111      1524727.6      1524197.5      1523377.6      1524100.9      258195.97      13.077955    
     27400   13.7           3000.6081     -66897.878      12411.102      1524893.8      1524212.5      1524263        1524456.4      258195.97      13.077955    
     27600   13.8           3019.0913     -66968.106      12487.551      1524744.9      1522269.5      1524896.8      1523970.4      258195.97      13.077955    
     27800   13.9           3017.913      -66823.566      12482.678      1525674.4      1526354.9      1525474        1525834.4      258195.97      13.077955    
     28000   14             2999.977      -66920.239      12408.491      1524236.6      1524018.5      1524522.8      1524259.3      258195.97      13.077955    
     28200   14.1           2984.6616     -66896.902      12345.144      1525040.3      1524793.5      1523027.5      1524287.1      258195.97      13.077955    
     28400   14.2           3015.9028     -67003.33       12474.363      1522715.1      1523698.1      1523726.9      1523380        258195.97      13.077955    
     28600   14.3           3003.0787     -66892.613      12421.32       1522376.4      1524780.4      1526606.9      1524587.9      258195.97      13.077955    
     28800   14.4           3011.1142     -66920.811      12454.557      1523838.2      1527138.7      1522447.6      1524474.8      258195.97      13.077955    
     29000   14.5           2991.3827     -66981.691      12372.943      1522277.2      1523728.3      1524005.8      1523337.1      258195.97      13.077955    
     29200   14.6           2992.1463     -66997.221      12376.102      1521992.3      1524559.3      1522819.4      1523123.7      258195.97      13.077955    
     29400   14.7           3003.1867     -66960.446      12421.767      1524251.3      1521469.2      1525668.4      1523796.3      258195.97      13.077955    
     29600   14.8           2977.6802     -66937.679      12316.267      1523089.3      1522589.1      1525275.5      1523651.3      258195.97      13.077955    
     29800   14.9           2995.1707     -66942.617      12388.611      1523732        1522429.8      1525515.5      1523892.4      258195.97      13.077955    
     30000   15             2986.0546     -66995.513      12350.905      1521892.6      1523745.3      1523733        1523123.7      258195.97      13.077955    
     30200   15.1           3019.6364     -67040.746      12489.806      1522823        1522825.3      1523809.5      1523152.6      258195.97      13.077955    
     30400   15.2           2973.1006     -66905.377      12297.325      1522916.1      1524366.6      1524501.9      1523928.2      258195.97      13.077955    
     30600   15.3           2991.4071     -66889.68       12373.044      1523488.7      1526676.6      1523329.8      1524498.4      258195.97      13.077955    
     30800   15.4           2997.9227     -66949.497      12399.994      1523628.2      1523771.3      1524171.1      1523856.8      258195.97      13.077955    
     31000   15.5           2994.421      -66972.577      12385.51       1523431.6      1523781.2      1523083.5      1523432.1      258195.97      13.077955    
     31200   15.6           2981.8944     -66947.665      12333.698      1525181.1      1520588.4      1525098        1523622.5      258195.97      13.077955    
     31400   15.7           3014.6299     -66948.784      12469.098      1524953.8      1522263.5      1525044.9      1524087.4      258195.97      13.077955    
     31600   15.8           3016.8387     -66922.071      12478.234      1524505.6      1524305.3      1524834.4      1524548.4      258195.97      13.077955    
     31800   15.9           3020.0089     -66892.745      12491.347      1524602.9      1524030.4      1526237.6      1524957        258195.97      13.077955    
     32000   16             3023.6898     -66819.925      12506.572      1526083.8      1526275.4      1525406.3      1525921.8      258195.97      13.077955    
     32200   16.1           2999.1909     -66848.821      12405.24       1524886.5      1524038.7      1526255        1525060.1      258195.97      13.077955    
     32400   16.2           3011.7135     -66831.425      12457.036      1525364.5      1524815.7      1526161.4      1525447.2      258195.97      13.077955    
     32600   16.3           3022.2451     -66888.72       12500.596      1525004.6      1525057.6      1525226        1525096.1      258195.97      13.077955    
     32800   16.4           2979.8219     -66804.779      12325.125      1524311.8      1526856        1524628.5      1525265.5      258195.97      13.077955    
     33000   16.5           2993.7095     -66901.766      12382.568      1523758.7      1525339.1      1523868.8      1524322.2      258195.97      13.077955    
     33200   16.6           2987.6022     -66951.853      12357.307      1522883.2      1522526.4      1525600.9      1523670.2      258195.97      13.077955    
     33400   16.7           3007.4343     -67005.894      12439.336      1523510.4      1523972.2      1521994.1      1523158.9      258195.97      13.077955    
     33600   16.8           3009.6692     -67050.275      12448.58       1522160.8      1522691.7      1523216.6      1522689.7      258195.97      13.077955    
     33800   16.9           3014.4812     -66961.447      12468.483      1523441.7      1524816.9      1523690.5      1523983        258195.97      13.077955    
     34000   17             2997.2999     -66950.148      12397.418      1523257.8      1524372.9      1524267.7      1523966.1      258195.97      13.077955    
     34200   17.1           2983.5424     -66934.495      12340.514      1522225.9      1524625.9      1524885.8      1523912.5      258195.97      13.077955    
     34400   17.2           3005.3869     -66937.094      12430.867      1522902.3      1525273.9      1524364.9      1524180.3      258195.97      13.077955    
     34600   17.3           2998.1947     -66971.767      12401.119      1524612.8      1523174.6      1523035.6      1523607.7      258195.97      13.077955    
     34800   17.4           3020.5068     -67005.262      12493.406      1522545        1523563.6      1524329        1523479.2      258195.97      13.077955    
     35000   17.5           2998.3742     -66919.587      12401.862      1523514.1      1524705.5      1524563.9      1524261.2      258195.97      13.077955    
     35200   17.6           2967.8009     -66942.138      12275.405      1522018.6      1522767.5      1524964.5      1523250.2      258195.97      13.077955    
     35400   17.7           3004.0594     -66906.163      12425.377      1521640.6      1525795.1      1526035.6      1524490.4      258195.97      13.077955    
     35600   17.8           3013.1492     -66935.664      12462.974      1524423.6      1524588.4      1523384.9      1524132.3      258195.97      13.077955    
     35800   17.9           3001.1491     -66920.276      12413.339      1525276.3      1522880.2      1524797.6      1524318        258195.97      13.077955    
     36000   18             2988.1916     -67020.174      12359.744      1523453.1      1523193.2      1521908.4      1522851.6      258195.97      13.077955    
     36200   18.1           3003.1252     -66986.176      12421.513      1521918.3      1525279.2      1523428.6      1523542        258195.97      13.077955    
     36400   18.2           2977.834      -67058.796      12316.903      1521580.2      1522118.5      1522912.5      1522203.7      258195.97      13.077955    
     36600   18.3           2988.7505     -66981.403      12362.056      1524281        1523392.9      1522651.7      1523441.9      258195.97      13.077955    
     36800   18.4           3008.1524     -66954.097      12442.306      1525065.1      1524091.6      1522920.1      1524025.6      258195.97      13.077955    
     37000   18.5           3014.8882     -66904.277      12470.167      1523532.6      1526663        1523272.3      1524489.3      258195.97      13.077955    
     37200   18.6           3035.1551     -66892.961      12553.994      1524996.3      1524055.8      1526652.2      1525234.8      258195.97      13.077955    
     37400   18.7           3015.1709     -66931.503      12471.336      1524778.4      1523343.8      1524731.3      1524284.5      258195.97      13.077955    
     37600   18.8           2968.1634     -66876.295      12276.904      1524135.6      1524886.2      1523309.3      1524110.4      258195.97      13.077955    
     37800   18.9           2992.4588     -66970.279      12377.394      1522806.8      1523461.7      1524082.8      1523450.4      258195.97      13.077955    
     38000   19             3008.9905     -67037.892      12445.773      1522065.9      1522072.9      1524776.2      1522971.7      258195.97      13.077955    
     38200   19.1           2986.624      -66934.321      12353.26       1522043.5      1525316.5      1524053.7      1523804.6      258195.97      13.077955    
     38400   19.2           2992.1096     -66899.29       12375.95       1524480.2      1525419.5      1523129.8      1524343.2      258195.97      13.077955    
     38600   19.3           3017.35       -66895.622      12480.349      1522242.3      1526649.7      1525642.2      1524844.7      258195.97      13.077955    
     38800   19.4           3023.3794     -66946.483      12505.288      1524271.6      1524036.3      1524451.9      1524253.3      258195.97      13.077955    
     39000   19.5           3011.3794     -66904.629      12455.654      1525006.8      1524495.7      1524151.8      1524551.4      258195.97      13.077955    
     39200   19.6           2985.7882     -66844.09       12349.803      1523987.3      1523867.2      1526944.9      1524933.1      258195.97      13.077955    
     39400   19.7           3002.1474     -66896.546      12417.468      1525162        1526205.5      1522584.9      1524650.8      258195.97      13.077955    
     39600   19.8           2974.3686     -66905.708      12302.569      1522810.3      1525463.2      1523936.2      1524069.9      258195.97      13.077955    
     39800   19.9           2982.3875     -66943.695      12335.737      1522973.2      1524225        1523768.9      1523655.7      258195.97      13.077955    
     40000   20             2982.7962     -66862.938      12337.428      1522913.4      1526564.3      1524455        1524644.2      258195.97      13.077955    
     40200   20.1           3007.6341     -66915.053      12440.162      1524784.3      1525323.7      1523685.6      1524597.9      258195.97      13.077955    
     40400   20.2           2984.5582     -67004.92       12344.716      1522625.4      1523067.8      1522534.5      1522742.6      258195.97      13.077955    
     40600   20.3           2951.1534     -67032.664      12206.547      1522705.9      1523297.3      1519974.4      1521992.5      258195.97      13.077955    
     40800   20.4           2967.7746     -67030.729      12275.296      1521194.6      1522996.4      1523102.5      1522431.2      258195.97      13.077955    
     41000   20.5           2986.026      -67055.688      12350.787      1522090.8      1523539.1      1521293.1      1522307.7      258195.97      13.077955    
     41200   20.6           2995.2945     -67079.176      12389.123      1520935.2      1523271.5      1522435.4      1522214.1      258195.97      13.077955    
     41400   20.7           2975.584      -66933.826      12307.597      1523025        1523361.7      1524486.6      1523624.4      258195.97      13.077955    
     41600   20.8           2987.8366     -66854.24       12358.276      1524984.5      1523878.4      1525596.2      1524819.7      258195.97      13.077955    
     41800   20.9           2982.1164     -66858.422      12334.616      1523611.3      1525315.3      1524541.8      1524489.5      258195.97      13.077955    
     42000   21             3015.6095     -66917.896      12473.15       1523254.2      1525413.8      1525370.5      1524679.5      258195.97      13.077955    
     42200   21.1           2994.4225     -66843.331      12385.516      1524538.7      1524836.2      1526005.9      1525126.9      258195.97      13.077955    
     42400   21.2           3034.3943     -66993.652      12550.847      1523019.1      1524927.4      1523820.7      1523922.4      258195.97      13.077955    
     42600   21.3           3000.7299     -66805.315      12411.605      1524086        1526429.1      1526518.3      1525677.8      258195.97      13.077955    
     42800   21.4           3014.5314     -66877.333      12468.691      1525618.5      1524633.2      1525273.1      1525174.9      258195.97      13.077955    
     43000   21.5           3031.5173     -66933.159      12538.948      1524337.1      1524165.7      1525329.5      1524610.8      258195.97      13.077955    
     43200   21.6           3025.5673     -66936.121      12514.337      1523519.1      1524957.7      1525023.8      1524500.2      258195.97      13.077955    
     43400   21.7           3006.2382     -66868.525      12434.388      1524533.3      1525249.5      1525023.8      1524935.5      258195.97      13.077955    
     43600   21.8           3011.9653     -66869.489      12458.077      1525479.7      1525241.3      1524493.5      1525071.5      258195.97      13.077955    
     43800   21.9           3009.2562     -66798.829      12446.872      1526356.7      1526047.6      1525499.1      1525967.8      258195.97      13.077955    
     44000   22             3017.5155     -66946.257      12481.034      1524615.8      1523919.4      1524180.7      1524238.7      258195.97      13.077955    
     44200   22.1           3003.6828     -66822.735      12423.819      1526292.6      1524388.7      1525456        1525379.1      258195.97      13.077955    
     44400   22.2           3004.0796     -66900.6        12425.46       1525091        1525396.5      1522834.3      1524440.6      258195.97      13.077955    
     44600   22.3           2997.8982     -66892.412      12399.893      1523751.2      1523972.5      1525875.3      1524533        258195.97      13.077955    
     44800   22.4           3020.8898     -66922.473      12494.99       1525120.3      1523387.7      1525463.2      1524657.1      258195.97      13.077955    
     45000   22.5           2992.5774     -66852.681      12377.885      1525998.2      1525344.9      1523306.4      1524883.2      258195.97      13.077955    
     45200   22.6           3020.7618     -66968.237      12494.461      1524070        1524514.2      1523280.3      1523954.8      258195.97      13.077955    
     45400   22.7           2998.9024     -66899.769      12404.046      1523772.2      1524432.5      1526062.1      1524755.6      258195.97      13.077955    
     45600   22.8           2967.9502     -66903.827      12276.022      1524445.5      1523290        1523951.2      1523895.6      258195.97      13.077955    
     45800   22.9           3005.1771     -66986.67       12430          1523758.8      1522692.6      1524031.2      1523494.2      258195.97      13.077955    
     46000   23             2984.9218     -66978.19       12346.22       1523539.8      1522145.4      1523960.4      1523215.2      258195.97      13.077955    
     46200   23.1           2986.0741     -67046.945      12350.986      1522054.7      1524861        1520391        1522435.6      258195.97      13.077955    
     46400   23.2           3002.0034     -67009.242      12416.873      1521931.9      1523457.8      1523841.3      1523077        258195.97      13.077955    
     46600   23.3           2979.2269     -66981.125      12322.664      1522507        1524342        1522632.8      1523160.6      258195.97      13.077955    
     46800   23.4           2977.3175     -67019.913      12314.767      1523553.9      1522063        1521944.2      1522520.4      258195.97      13.077955    
     47000   23.5           2982.8848     -66978.3        12337.794      1522767.4      1523931.3      1522609.1      1523102.6      258195.97      13.077955    
     47200   23.6           2999.7801     -66999.336      12407.676      1522465.8      1522880.3      1524324.5      1523223.5      258195.97      13.077955    
     47400   23.7           3007.5368     -66935.412      12439.76       1524294.6      1523248.7      1524919.4      1524154.3      258195.97      13.077955    
     47600   23.8           2996.8627     -67038.013      12395.609      1521781.9      1523101.4      1523352.5      1522745.3      258195.97      13.077955    
     47800   23.9           2993.1149     -66983.636      12380.108      1523559.3      1521202.9      1525239.9      1523334        258195.97      13.077955    
     48000   24             2994.5489     -66985.65       12386.039      1523715.2      1523754.8      1522486.5      1523318.8      258195.97      13.077955    
     48200   24.1           3005.8198     -67020.166      12432.658      1520893.8      1525361.2      1522733.1      1522996        258195.97      13.077955    
     48400   24.2           3006.4371     -66947.127      12435.211      1524194.9      1524230.4      1524076.3      1524167.2      258195.97      13.077955    
     48600   24.3           3000.2734     -66926.074      12409.717      1522365.8      1527083.4      1523093.1      1524180.8      258195.97      13.077955    
     48800   24.4           2994.9092     -66913.143      12387.529      1523866.8      1525212.1      1523598        1524225.7      258195.97      13.077955    
     49000   24.5           3013.7833     -66956.077      12465.597      1523794.5      1525377.3      1522984        1524051.9      258195.97      13.077955    
     49200   24.6           2996.6752     -66844.717      12394.834      1526455.5      1523798.4      1525033.7      1525095.9      258195.97      13.077955    
     49400   24.7           3005.2097     -66939.392      12430.135      1524691.1      1523662.9      1523787.4      1524047.2      258195.97      13.077955    
     49600   24.8           2994.4385     -66935.313      12385.583      1523093.8      1524326.8      1524458.5      1523959.7      258195.97      13.077955    
     49800   24.9           3003.8096     -66924.432      12424.343      1523272.2      1522382.3      1526792.4      1524149        258195.97      13.077955    
     50000   25             2982.1226     -66910.071      12334.642      1523887.2      1522019.1      1526120.3      1524008.9      258195.97      13.077955    
Loop time of 64.0818 on 1 procs for 50000 steps with 32000 atoms

Performance: 33.707 ns/day, 0.712 hours/ns, 780.253 timesteps/s, 24.968 Matom-step/s
99.8% CPU use with 1 MPI tasks x 1 OpenMP threads

MPI task timing breakdown:
Section |  min time  |  avg time  |  max time  |%varavg| %total
---------------------------------------------------------------
Pair    | 37.133     | 37.133     | 37.133     |   0.0 | 57.95
Neigh   | 0.21067    | 0.21067    | 0.21067    |   0.0 |  0.33
Comm    | 22.349     | 22.349     | 22.349     |   0.0 | 34.88
Output  | 0.11825    | 0.11825    | 0.11825    |   0.0 |  0.18
Modify  | 2.2232     | 2.2232     | 2.2232     |   0.0 |  3.47
Other   |            | 2.047      |            |       |  3.20

Nlocal:          32000 ave       32000 max       32000 min
Histogram: 1 0 0 0 0 0 0 0 0 0
Nghost:          29258 ave       29258 max       29258 min
Histogram: 1 0 0 0 0 0 0 0 0 0
Neighs:    3.94912e+06 ave 3.94912e+06 max 3.94912e+06 min
Histogram: 1 0 0 0 0 0 0 0 0 0

Total # of neighbors = 3949120
Ave neighs/atom = 123.41
Neighbor list builds = 559
Dangerous builds = 0
Total wall time: 0:01:06
