LAMMPS (10 Sep 2025)
KOKKOS mode with Kokkos version 4.6.2 is enabled
  using double precision
  using view layout = legacy
  will use up to 1 GPU(s) per node
  using 1 OpenMP thread(s) per MPI task
package kokkos
package kokkos newton on neigh half comm device
dimension       3
units           metal
atom_style      atomic
boundary        p p p

# --- Create FCC Cu lattice ---
#lattice         fcc 3.52
#region          box block 0 20 0 20 0 20
#create_box      1 box
#create_atoms    1 box
#mass            1 63.546

read_data       ../../../eos/0.72V/Cu-0.72V.lmp
Reading data file ...
  orthogonal box = (3.6509088 3.6509088 3.6509088) to (66.749091 66.749091 66.749091)
  1 by 1 by 1 MPI processor grid
  reading atoms ...
  32000 atoms
  reading velocities ...
  32000 velocities
  read_data CPU = 0.126 seconds
#change_box     all x scale _scale_ y scale _scale_ z scale _scale_ remap

neighbor        2.0 bin
neigh_modify    delay 0 every 1 check yes

pair_style      eam/alloy
pair_coeff      * * Cu-EAM-Z1622old.eam.alloy Cu

shell           "mkdir -p dumps"

variable	thold equal 4000
variable	itemp equal 2*4000
variable	runNVE equal 50000
variable	tstep equal 0.0005
variable	ph string 4000K-0.72V

timestep        ${tstep}
timestep        0.0005
thermo          200
thermo_style    custom step time temp pe ke pxx pyy pzz press vol density
#thermo_modify	norm yes

dump        	RDUMP all custom 20000 dumps/${ph}-NV-4000K-*.xyz id type x y z
dump        	RDUMP all custom 20000 dumps/4000K-0.72V-NV-4000K-*.xyz id type x y z

#NV  4000K calculation
velocity 		all create ${itemp}  23796
velocity 		all create 8000  23796

fix 			LANG all langevin ${thold} ${thold} $(300.0*dt) 33948
fix 			LANG all langevin 4000 ${thold} $(300.0*dt) 33948
fix 			LANG all langevin 4000 4000 $(300.0*dt) 33948
fix 			LANG all langevin 4000 4000 0.14999999999999999445 33948
fix 			NVE all nve
run  			${runNVE}
run  			50000
Neighbor list info ...
  update: every = 1 steps, delay = 0 steps, check = yes
  max neighbors/atom: 2000, page size: 100000
  master list distance cutoff = 7.859375
  ghost atom cutoff = 7.859375
  binsize = 7.859375, bins = 9 9 9
  1 neighbor lists, perpetual/occasional/extra = 1 0 0
  (1) pair eam/alloy/kk, perpetual
      attributes: half, newton on, kokkos_device
      pair build: half/bin/newton/kk/device
      stencil: half/bin/3d
      bin: kk/device
Per MPI rank memory allocation (min/avg/max) = 11.5 | 11.5 | 11.5 Mbytes
   Step          Time           Temp          PotEng         KinEng          Pxx            Pyy            Pzz           Press          Volume        Density    
         0   0              8000          -73096.453      33089.563      1649044        1648213.7      1648244.6      1648500.8      251217.88      13.441222    
       200   0.1            4025.3808     -56705.869      16649.762      1800176.7      1803312.1      1803210.8      1802233.2      251217.88      13.441222    
       400   0.2            3967.9032     -56375.417      16412.023      1803471.1      1806446.8      1807137.8      1805685.2      251217.88      13.441222    
       600   0.3            4018.1824     -56536.166      16619.987      1804120.4      1805535.7      1804176.7      1804610.9      251217.88      13.441222    
       800   0.4            4015.22       -56377.369      16607.734      1804828.8      1807900.7      1807559.2      1806762.9      251217.88      13.441222    
      1000   0.5            4018.6716     -56567.284      16622.011      1804950.1      1806153.4      1802182.5      1804428.7      251217.88      13.441222    
      1200   0.6            3987.7994     -56462.909      16494.317      1803590        1805838.2      1806408        1805278.7      251217.88      13.441222    
      1400   0.7            3974.2475     -56520.534      16438.264      1804782.6      1802344.2      1805263.2      1804130        251217.88      13.441222    
      1600   0.8            3971.9795     -56385.703      16428.883      1806259.5      1806005.5      1805536.4      1805933.8      251217.88      13.441222    
      1800   0.9            4001.5328     -56485.786      16551.122      1804982.6      1806712.5      1803280.6      1804991.9      251217.88      13.441222    
      2000   1              4023.4377     -56374.35       16641.725      1804397.7      1807930        1808058.7      1806795.5      251217.88      13.441222    
      2200   1.1            4025.169      -56431.353      16648.885      1807813.8      1805499.4      1805157.9      1806157        251217.88      13.441222    
      2400   1.2            3977.4058     -56296.876      16451.328      1807931.8      1805980.9      1807697.8      1807203.5      251217.88      13.441222    
      2600   1.3            3992.824      -56348.628      16515.1        1806633        1808698.3      1804353.3      1806561.5      251217.88      13.441222    
      2800   1.4            3982.347      -56435.889      16471.765      1805439.5      1804357.2      1806342.2      1805379.6      251217.88      13.441222    
      3000   1.5            4013.8127     -56511.091      16601.913      1806057.3      1804787.4      1803462        1804768.9      251217.88      13.441222    
      3200   1.6            4018.7256     -56500.009      16622.234      1805912.8      1804854.7      1804412.2      1805059.9      251217.88      13.441222    
      3400   1.7            4006.4032     -56522.114      16571.267      1802533        1806397.8      1804904.7      1804611.8      251217.88      13.441222    
      3600   1.8            4000.2745     -56476.327      16545.917      1805231.9      1804098.9      1805883.5      1805071.4      251217.88      13.441222    
      3800   1.9            3990.8376     -56521.307      16506.884      1803823.5      1804504.5      1805361.6      1804563.2      251217.88      13.441222    
      4000   2              3992.169      -56375.613      16512.391      1807327.9      1805598        1805865.6      1806263.8      251217.88      13.441222    
      4200   2.1            3982.9706     -56510.388      16474.345      1802088.6      1805326.9      1805504.8      1804306.8      251217.88      13.441222    
      4400   2.2            3967.4982     -56549.76       16410.348      1802121.4      1805418.1      1802912.2      1803483.9      251217.88      13.441222    
      4600   2.3            3993.8951     -56604.43       16519.53       1801201        1803570.5      1805679.8      1803483.8      251217.88      13.441222    
      4800   2.4            4010.643      -56515.417      16588.803      1803917.9      1805851.7      1804871        1804880.2      251217.88      13.441222    
      5000   2.5            4024.3442     -56509.455      16645.474      1805425.2      1804267.7      1806092.3      1805261.7      251217.88      13.441222    
      5200   2.6            4007.1334     -56435.928      16574.287      1804373.5      1808246.9      1804569.1      1805729.8      251217.88      13.441222    
      5400   2.7            3985.5074     -56415.522      16484.837      1805062.7      1805808.4      1805852.4      1805574.5      251217.88      13.441222    
      5600   2.8            4004.0025     -56414.085      16561.337      1804933.5      1807481        1805802.3      1806072.2      251217.88      13.441222    
      5800   2.9            4019.128      -56430.076      16623.899      1806574.1      1806852.5      1804556.2      1805994.3      251217.88      13.441222    
      6000   3              4009.031      -56398.052      16582.135      1808402.3      1805136        1804834.6      1806124.3      251217.88      13.441222    
      6200   3.1            4021.1577     -56413.243      16632.294      1807489.6      1804860.4      1806499.8      1806283.3      251217.88      13.441222    
      6400   3.2            4010.3281     -56157.253      16587.501      1807089.2      1813593.9      1807877.2      1809520.1      251217.88      13.441222    
      6600   3.3            4033.6285     -56365.58       16683.875      1807115.1      1808141.7      1806290.5      1807182.5      251217.88      13.441222    
      6800   3.4            4016.8428     -56502.085      16614.447      1805720.7      1803476.7      1806065.8      1805087.7      251217.88      13.441222    
      7000   3.5            4007.0678     -56351.064      16574.015      1808211.5      1804837.1      1807003.1      1806683.9      251217.88      13.441222    
      7200   3.6            4022.3264     -56598.356      16637.128      1803706.8      1805899.8      1802477.2      1804027.9      251217.88      13.441222    
      7400   3.7            3994.1061     -56555.439      16520.403      1805403.4      1803897        1802253.5      1803851.3      251217.88      13.441222    
      7600   3.8            3991.0291     -56382.126      16507.676      1805858.6      1808848.2      1804030.5      1806245.8      251217.88      13.441222    
      7800   3.9            4025.4047     -56455.824      16649.86       1807100.5      1803816.2      1806221        1805712.6      251217.88      13.441222    
      8000   4              4037.9799     -56441.601      16701.874      1804342.6      1807637.3      1806587        1806188.9      251217.88      13.441222    
      8200   4.1            3997.7821     -56301.935      16535.608      1806379        1807440.2      1808315        1807378        251217.88      13.441222    
      8400   4.2            4019.6093     -56431.024      16625.889      1806280.4      1805520.2      1806226        1806008.8      251217.88      13.441222    
      8600   4.3            4002.386      -56514.73       16554.65       1805471.3      1805959.9      1802281.5      1804570.9      251217.88      13.441222    
      8800   4.4            3986.4822     -56426.363      16488.869      1806017.7      1805902.4      1804221.1      1805380.4      251217.88      13.441222    
      9000   4.5            4007.0355     -56415.863      16573.882      1807630.5      1803450.8      1806827.3      1805969.5      251217.88      13.441222    
      9200   4.6            4008.9719     -56432.023      16581.891      1806654.5      1805651.9      1805651        1805985.8      251217.88      13.441222    
      9400   4.7            3992.3853     -56512.883      16513.286      1803382.7      1805500.3      1804707        1804530        251217.88      13.441222    
      9600   4.8            3959.3759     -56411.368      16376.752      1805820.4      1802366.5      1807616.2      1805267.7      251217.88      13.441222    
      9800   4.9            4001.3916     -56645.047      16550.537      1801758.5      1804073.8      1803127.4      1802986.6      251217.88      13.441222    
     10000   5              3965.0596     -56541.781      16400.261      1804233.6      1802409.8      1804755.4      1803799.6      251217.88      13.441222    
     10200   5.1            3992.7057     -56598.189      16514.611      1803314.2      1801597.8      1805062.2      1803324.7      251217.88      13.441222    
     10400   5.2            3981.6482     -56560.68       16468.875      1802786.3      1804025.5      1804073.6      1803628.5      251217.88      13.441222    
     10600   5.3            3989.3502     -56509.238      16500.732      1805775.7      1804632.6      1803194        1804534.1      251217.88      13.441222    
     10800   5.4            4001.6416     -56524.197      16551.572      1802313.5      1804237.4      1806951        1804500.6      251217.88      13.441222    
     11000   5.5            4004.036      -56439.503      16561.475      1806750.2      1802367.5      1807903.5      1805673.7      251217.88      13.441222    
     11200   5.6            4007.4574     -56437.825      16575.627      1806396.4      1807652.2      1802879.9      1805642.8      251217.88      13.441222    
     11400   5.7            4006.0802     -56496.376      16569.93       1804612.3      1802600.7      1807714.3      1804975.8      251217.88      13.441222    
     11600   5.8            3993.4475     -56446.768      16517.679      1806776.1      1801170.8      1808222.2      1805389.7      251217.88      13.441222    
     11800   5.9            3997.6814     -56472.53       16535.192      1805392.2      1804023        1805923.2      1805112.8      251217.88      13.441222    
     12000   6              4000.7369     -56478.528      16547.829      1805608        1804490.3      1805344.6      1805147.6      251217.88      13.441222    
     12200   6.1            4006.0357     -56393.844      16569.746      1805198        1806422.1      1807678.4      1806432.8      251217.88      13.441222    
     12400   6.2            4019.5651     -56301.907      16625.707      1803639.2      1810412.7      1808958        1807670        251217.88      13.441222    
     12600   6.3            3999.8043     -56413.176      16543.972      1805893.5      1807877.7      1804074.7      1805948.6      251217.88      13.441222    
     12800   6.4            3996.4457     -56453.534      16530.08       1806693.4      1803563.9      1806022.5      1805426.6      251217.88      13.441222    
     13000   6.5            4010.7628     -56474.39       16589.299      1805958.3      1803237.1      1806962.2      1805385.9      251217.88      13.441222    
     13200   6.6            3991.0144     -56462.796      16507.615      1805151.1      1805285.8      1804978.3      1805138.4      251217.88      13.441222    
     13400   6.7            3988.7873     -56435.22       16498.403      1803487.3      1805345.6      1807457.3      1805430.1      251217.88      13.441222    
     13600   6.8            4004.1411     -56485.142      16561.91       1806295.4      1804538.4      1804271.4      1805035.1      251217.88      13.441222    
     13800   6.9            3999.0046     -56350.769      16540.664      1806740.4      1806487.7      1807260.9      1806829.6      251217.88      13.441222    
     14000   7              4015.0745     -56378.013      16607.133      1806240.8      1808612.6      1804840.7      1806564.7      251217.88      13.441222    
     14200   7.1            4047.9425     -56404.125      16743.081      1807824.6      1804719.7      1807854.9      1806799.7      251217.88      13.441222    
     14400   7.2            4027.6636     -56507.569      16659.204      1803160.9      1804997.3      1807167.6      1805108.6      251217.88      13.441222    
     14600   7.3            3989.5082     -56466.833      16501.385      1807530.3      1802607.1      1804195.8      1804777.8      251217.88      13.441222    
     14800   7.4            4002.879      -56387.426      16556.69       1806969        1805302.1      1806563.1      1806278.1      251217.88      13.441222    
     15000   7.5            4017.5595     -56423.906      16617.411      1804892.4      1805969.6      1806841.2      1805901.1      251217.88      13.441222    
     15200   7.6            4014.8369     -56457.586      16606.15       1805356        1805913.8      1805639.7      1805636.5      251217.88      13.441222    
     15400   7.7            4010.6617     -56418.355      16588.881      1807940.2      1804452.9      1805575.2      1805989.5      251217.88      13.441222    
     15600   7.8            4022.9797     -56372.923      16639.83       1806038.3      1807452.6      1807127.3      1806872.7      251217.88      13.441222    
     15800   7.9            3990.1159     -56297.039      16503.899      1806632.3      1810008        1805442        1807360.8      251217.88      13.441222    
     16000   8              3985.8876     -56415.759      16486.41       1805281.5      1803815.7      1808061.5      1805719.5      251217.88      13.441222    
     16200   8.1            3983.4891     -56433.348      16476.489      1805848        1804904.6      1805229.7      1805327.4      251217.88      13.441222    
     16400   8.2            4009.9644     -56486.926      16585.996      1805348.9      1804479.3      1805544.1      1805124.1      251217.88      13.441222    
     16600   8.3            3984.2486     -56454.625      16479.631      1804939.3      1807361.7      1803067.6      1805122.9      251217.88      13.441222    
     16800   8.4            3996.4703     -56402.465      16530.182      1805985.1      1806260.7      1805788        1806011.2      251217.88      13.441222    
     17000   8.5            3991.8142     -56390.955      16510.923      1806905.4      1805002.1      1806263        1806056.8      251217.88      13.441222    
     17200   8.6            3990.3726     -56355.235      16504.961      1807253.2      1805837.8      1806536.7      1806542.6      251217.88      13.441222    
     17400   8.7            4000.4191     -56547.919      16546.515      1804276.4      1804585.8      1803844.5      1804235.6      251217.88      13.441222    
     17600   8.8            4007.744      -56596.006      16576.812      1804326.8      1804687.5      1801652.5      1803555.6      251217.88      13.441222    
     17800   8.9            3989.6163     -56437.207      16501.833      1806535.5      1804623.1      1805224.3      1805461        251217.88      13.441222    
     18000   9              3988.6863     -56586.96       16497.986      1802819.8      1801439        1806334.3      1803531        251217.88      13.441222    
     18200   9.1            4005.5616     -56482.163      16567.785      1803474.9      1806530        1805176.2      1805060.4      251217.88      13.441222    
     18400   9.2            3970.8762     -56446.768      16424.32       1805583.1      1804423        1804861.2      1804955.8      251217.88      13.441222    
     18600   9.3            4009.3616     -56664.596      16583.503      1802877.3      1803466.6      1802739.3      1803027.7      251217.88      13.441222    
     18800   9.4            3996.09       -56587.858      16528.609      1804358        1803760.5      1803136.8      1803751.8      251217.88      13.441222    
     19000   9.5            3981.6168     -56492.103      16468.745      1805803.9      1802512.8      1805179.5      1804498.7      251217.88      13.441222    
     19200   9.6            3991.4613     -56360.177      16509.464      1806677.3      1805440.7      1806818.5      1806312.2      251217.88      13.441222    
     19400   9.7            4013.4217     -56502.555      16600.296      1804085.8      1807714.6      1802760.1      1804853.5      251217.88      13.441222    
     19600   9.8            4003.2341     -56682.043      16558.159      1802547.7      1802626.5      1802941.9      1802705.4      251217.88      13.441222    
     19800   9.9            4002.0135     -56404.727      16553.11       1804320.6      1808003.4      1805578.5      1805967.5      251217.88      13.441222    
     20000   10             4020.1817     -56377.902      16628.257      1808044.4      1805596.1      1806638.8      1806759.8      251217.88      13.441222    
     20200   10.1           3997.1584     -56408.787      16533.028      1807258.8      1806673.5      1803712.6      1805881.6      251217.88      13.441222    
     20400   10.2           3987.7175     -56470.346      16493.979      1805338.9      1805519.9      1804011.7      1804956.8      251217.88      13.441222    
     20600   10.3           4007.752      -56377.507      16576.845      1805028        1807762.2      1806603        1806464.4      251217.88      13.441222    
     20800   10.4           3973.0226     -56425.329      16433.198      1805386.1      1806996.2      1803340.9      1805241.1      251217.88      13.441222    
     21000   10.5           3979.0681     -56500.949      16458.203      1802986.1      1804600.7      1805178.1      1804255        251217.88      13.441222    
     21200   10.6           3980.9745     -56395.702      16466.088      1804097.7      1807839.2      1805916.6      1805951.2      251217.88      13.441222    
     21400   10.7           3998.175      -56525.999      16537.233      1805468        1805342.8      1802419        1804409.9      251217.88      13.441222    
     21600   10.8           3983.8067     -56609.015      16477.803      1804568        1803328.7      1801755.4      1803217.4      251217.88      13.441222    
     21800   10.9           3978.5735     -56459.628      16456.157      1804455.9      1806231        1804363.8      1805016.9      251217.88      13.441222    
     22000   11             3992.4733     -56437.871      16513.65       1803102.1      1807845.2      1805256.2      1805401.2      251217.88      13.441222    
     22200   11.1           3987.9632     -56475.507      16494.995      1802648.3      1804440.7      1807482.4      1804857.1      251217.88      13.441222    
     22400   11.2           3996.6699     -56509.363      16531.008      1804316.5      1806092.7      1803494.1      1804634.4      251217.88      13.441222    
     22600   11.3           3999.0137     -56549.253      16540.702      1804774.8      1801795.7      1806154        1804241.5      251217.88      13.441222    
     22800   11.4           3994.5382     -56467.394      16522.19       1803592.3      1806730.4      1805451        1805257.9      251217.88      13.441222    
     23000   11.5           4008.5564     -56479.402      16580.172      1803702.2      1803836.2      1808137.2      1805225.2      251217.88      13.441222    
     23200   11.6           3970.4951     -56466.692      16422.743      1805762.4      1804256.6      1803618.8      1804545.9      251217.88      13.441222    
     23400   11.7           3988.8663     -56567.612      16498.73       1804390.2      1802970.4      1804398.7      1803919.8      251217.88      13.441222    
     23600   11.8           4003.0371     -56609.637      16557.344      1804883.3      1803660.9      1801628.9      1803391        251217.88      13.441222    
     23800   11.9           4002.1863     -56548.815      16553.825      1802807        1804569.3      1805405.4      1804260.6      251217.88      13.441222    
     24000   12             3993.7976     -56596          16519.127      1801033.1      1804566.2      1804886.6      1803495.3      251217.88      13.441222    
     24200   12.1           3979.9844     -56431.959      16461.993      1803460.5      1806381.3      1805869.5      1805237.1      251217.88      13.441222    
     24400   12.2           4007.6425     -56415.948      16576.392      1804997.7      1807473        1805331.4      1805934        251217.88      13.441222    
     24600   12.3           3997.0532     -56453.314      16532.593      1802836.1      1805861        1807409.5      1805368.8      251217.88      13.441222    
     24800   12.4           3977.5588     -56495.551      16451.96       1804561.7      1806578.4      1802334.3      1804491.5      251217.88      13.441222    
     25000   12.5           4010.3618     -56546.137      16587.64       1804605.2      1807140.9      1802071.4      1804605.9      251217.88      13.441222    
     25200   12.6           3980.0216     -56482.649      16462.147      1804825.9      1802332.6      1806908.1      1804688.9      251217.88      13.441222    
     25400   12.7           4001.8141     -56523.69       16552.285      1804996.9      1802384.3      1806109.2      1804496.8      251217.88      13.441222    
     25600   12.8           3968.745      -56426.109      16415.505      1803633.7      1807389.5      1804328.5      1805117.2      251217.88      13.441222    
     25800   12.9           3998.5449     -56375.379      16538.763      1806120.2      1807040.3      1806271.6      1806477.4      251217.88      13.441222    
     26000   13             4006.4856     -56387.487      16571.607      1806187.5      1805964.1      1806581.8      1806244.4      251217.88      13.441222    
     26200   13.1           4025.8449     -56401.325      16651.681      1805390.7      1804228.4      1809828.8      1806482.6      251217.88      13.441222    
     26400   13.2           3990.2911     -56279.111      16504.624      1806659.7      1807054.4      1807928.8      1807214.3      251217.88      13.441222    
     26600   13.3           3979.3212     -56464.479      16459.25       1803006.9      1806203.3      1805249.6      1804819.9      251217.88      13.441222    
     26800   13.4           4027.4914     -56433.59       16658.491      1808169.1      1802719.9      1807988.1      1806292.4      251217.88      13.441222    
     27000   13.5           3992.6596     -56427.752      16514.42       1805513.8      1805796.5      1805492.2      1805600.8      251217.88      13.441222    
     27200   13.6           3987.9648     -56499.839      16495.001      1806127.2      1803670.8      1804063.4      1804620.5      251217.88      13.441222    
     27400   13.7           4020.1461     -56494.597      16628.11       1806163.6      1804668.4      1804599.7      1805143.9      251217.88      13.441222    
     27600   13.8           4011.0649     -56496.114      16590.548      1803514.1      1806480.8      1805580.1      1805191.7      251217.88      13.441222    
     27800   13.9           4021.9523     -56534.588      16635.58       1804189.2      1805700.8      1804917.4      1804935.8      251217.88      13.441222    
     28000   14             4002.3168     -56427.188      16554.364      1806782.1      1803310.3      1807031.5      1805708        251217.88      13.441222    
     28200   14.1           4008.9405     -56349.989      16581.761      1806645.4      1806721.5      1807020.2      1806795.7      251217.88      13.441222    
     28400   14.2           4020.5811     -56493.681      16629.909      1805372.4      1804560.8      1806223.5      1805385.6      251217.88      13.441222    
     28600   14.3           4009.6545     -56412.144      16584.714      1806823.7      1805255.7      1805936.3      1806005.2      251217.88      13.441222    
     28800   14.4           3989.1369     -56436.079      16499.85       1804031.2      1807624.2      1804375.2      1805343.6      251217.88      13.441222    
     29000   14.5           4024.4381     -56557.272      16645.862      1803412.3      1805211.1      1805094.2      1804572.5      251217.88      13.441222    
     29200   14.6           4014.6032     -56427.791      16605.183      1806438.4      1804675        1806665.4      1805926.3      251217.88      13.441222    
     29400   14.7           4005.2379     -56468.628      16566.447      1808828.8      1804802.9      1802669        1805433.6      251217.88      13.441222    
     29600   14.8           3987.0563     -56553.244      16491.244      1802452.7      1807178        1802032.2      1803887.7      251217.88      13.441222    
     29800   14.9           3995.0538     -56467.59       16524.323      1804671.2      1806574.1      1804173.4      1805139.6      251217.88      13.441222    
     30000   15             3983.0621     -56507.633      16474.723      1802804        1804652.9      1806066.1      1804507.7      251217.88      13.441222    
     30200   15.1           3987.2944     -56560.522      16492.229      1805673        1805363.5      1800420.7      1803819.1      251217.88      13.441222    
     30400   15.2           3979.3473     -56664.51       16459.358      1800217.9      1805042.3      1802126.6      1802462.3      251217.88      13.441222    
     30600   15.3           4009.1202     -56532.7        16582.504      1802242        1806433.9      1805380.8      1804685.6      251217.88      13.441222    
     30800   15.4           4012.7267     -56491.872      16597.422      1804125.8      1803758.8      1807174.7      1805019.8      251217.88      13.441222    
     31000   15.5           3992.2705     -56438.818      16512.811      1805726.7      1804394.5      1806124.9      1805415.4      251217.88      13.441222    
     31200   15.6           3983.2827     -56440.344      16475.635      1808033.9      1803700.3      1804691.8      1805475.3      251217.88      13.441222    
     31400   15.7           3970.5747     -56395.115      16423.073      1806390.2      1805945.9      1804451.8      1805596        251217.88      13.441222    
     31600   15.8           3998.5416     -56577.307      16538.749      1803459.6      1804673.7      1803745.6      1803959.6      251217.88      13.441222    
     31800   15.9           3993.7837     -56548.304      16519.07       1803379.7      1805313.2      1803741.1      1804144.6      251217.88      13.441222    
     32000   16             3985.8069     -56448.783      16486.076      1804857.6      1805338.5      1805816        1805337.4      251217.88      13.441222    
     32200   16.1           3976.1519     -56554.865      16446.141      1804776.1      1800405.8      1806014.9      1803732.3      251217.88      13.441222    
     32400   16.2           3986.9456     -56443.93       16490.786      1806041.1      1802965        1806991.2      1805332.4      251217.88      13.441222    
     32600   16.3           4004.4819     -56535.125      16563.32       1804968.2      1803131.8      1805187.4      1804429.1      251217.88      13.441222    
     32800   16.4           4028.4526     -56515.583      16662.467      1802587.4      1804221        1808414.2      1805074.2      251217.88      13.441222    
     33000   16.5           4012.162      -56543.163      16595.086      1805903.1      1805117.8      1802506.6      1804509.2      251217.88      13.441222    
     33200   16.6           3980.6926     -56407.881      16464.922      1804888.7      1807045.5      1805169        1805701.1      251217.88      13.441222    
     33400   16.7           4014.8691     -56415.177      16606.283      1806922.7      1804950.3      1806435        1806102.7      251217.88      13.441222    
     33600   16.8           4017.0894     -56364.648      16615.467      1805916.4      1807600.4      1807224.4      1806913.7      251217.88      13.441222    
     33800   16.9           4021.7044     -56563.041      16634.555      1805090.1      1803624.2      1804964.6      1804559.6      251217.88      13.441222    
     34000   17             4009.4142     -56525.935      16583.721      1806062.1      1804110        1803709.6      1804627.2      251217.88      13.441222    
     34200   17.1           3998.8259     -56402.766      16539.925      1808757.7      1803333.1      1806376.3      1806155.7      251217.88      13.441222    
     34400   17.2           4005.8402     -56467.333      16568.938      1806582.2      1802926.3      1806766.3      1805424.9      251217.88      13.441222    
     34600   17.3           4022.9274     -56550.003      16639.614      1808007.3      1803420.3      1802099.6      1804509.1      251217.88      13.441222    
     34800   17.4           3988.7626     -56424.085      16498.301      1803178        1807476.6      1806509.6      1805721.4      251217.88      13.441222    
     35000   17.5           3997.8892     -56488.637      16536.051      1803670.5      1808024.9      1803247.3      1804980.9      251217.88      13.441222    
     35200   17.6           4030.6431     -56503.144      16671.527      1804832.2      1807763.1      1803904.4      1805499.9      251217.88      13.441222    
     35400   17.7           4009.2871     -56466.903      16583.195      1805559.1      1807523.9      1802427.5      1805170.2      251217.88      13.441222    
     35600   17.8           3999.4878     -56356.818      16542.663      1804730.3      1808085.1      1807111        1806642.1      251217.88      13.441222    
     35800   17.9           3968.3193     -56312.159      16413.744      1806955        1808948.9      1804103.9      1806669.3      251217.88      13.441222    
     36000   18             4005.1211     -56508.042      16565.963      1804942.5      1805232.2      1803949.6      1804708.1      251217.88      13.441222    
     36200   18.1           4006.7189     -56480.048      16572.572      1806722.3      1805836.6      1802467.5      1805008.8      251217.88      13.441222    
     36400   18.2           4034.3285     -56579.291      16686.771      1804288.3      1804384.9      1803995.2      1804222.8      251217.88      13.441222    
     36600   18.3           4009.4905     -56519.424      16584.036      1806066.1      1803518.5      1804318.4      1804634.3      251217.88      13.441222    
     36800   18.4           4007.73       -56481.229      16576.754      1803888.8      1806101.4      1805529.9      1805173.3      251217.88      13.441222    
     37000   18.5           3995.7781     -56315.702      16527.319      1805024        1810703.2      1804852.5      1806859.9      251217.88      13.441222    
     37200   18.6           3965.7849     -56408.866      16403.261      1804595.3      1806763.7      1804887.5      1805415.5      251217.88      13.441222    
     37400   18.7           4006.1068     -56448.489      16570.04       1805032.7      1805993.4      1805115.2      1805380.4      251217.88      13.441222    
     37600   18.8           3995.8395     -56366.77       16527.573      1805821.1      1806023.3      1807044.5      1806296.3      251217.88      13.441222    
     37800   18.9           3987.1258     -56454.552      16491.531      1804580.1      1805743.6      1805081.3      1805135        251217.88      13.441222    
     38000   19             3993.224      -56495.75       16516.754      1803620.6      1805193        1805352.6      1804722.1      251217.88      13.441222    
     38200   19.1           3991.6338     -56446.3        16510.177      1805898.1      1805238.3      1804367.8      1805168.1      251217.88      13.441222    
     38400   19.2           3992.0287     -56423.825      16511.811      1805463.4      1805669.1      1805459.8      1805530.7      251217.88      13.441222    
     38600   19.3           3998.4148     -56449.97       16538.225      1806024.1      1806600.6      1803434.5      1805353.1      251217.88      13.441222    
     38800   19.4           4011.4548     -56509.242      16592.161      1803440.5      1807753.9      1803326.5      1804840.3      251217.88      13.441222    
     39000   19.5           3989.9387     -56559.605      16503.166      1804624.5      1803863.9      1803391.8      1803960.1      251217.88      13.441222    
     39200   19.6           4014.2418     -56487.211      16603.688      1805405.9      1805361.2      1804828.9      1805198.7      251217.88      13.441222    
     39400   19.7           4026.7111     -56395.454      16655.264      1805218        1808648.3      1805712.9      1806526.4      251217.88      13.441222    
     39600   19.8           4025.3652     -56418.925      16649.697      1805629.8      1805785.7      1808291.6      1806569        251217.88      13.441222    
     39800   19.9           3997.1173     -56482.863      16532.858      1805061.2      1803864.4      1806255.7      1805060.5      251217.88      13.441222    
     40000   20             4020.9602     -56553.842      16631.477      1804657.5      1803906.3      1805173.5      1804579.1      251217.88      13.441222    
     40200   20.1           3994.7577     -56516.889      16523.098      1804556.9      1803295.8      1805388.9      1804413.9      251217.88      13.441222    
     40400   20.2           3998.9843     -56416.624      16540.58       1807325.1      1805686.6      1804784.7      1805932.1      251217.88      13.441222    
     40600   20.3           3999.4089     -56422.895      16542.337      1805814.6      1806096.2      1805283.7      1805731.5      251217.88      13.441222    
     40800   20.4           3999.1503     -56460.702      16541.267      1805321.4      1804259.2      1806211.3      1805264        251217.88      13.441222    
     41000   20.5           4014.4242     -56485.937      16604.443      1808736.5      1801851.6      1804706.7      1805098.3      251217.88      13.441222    
     41200   20.6           4032.9144     -56472.296      16680.922      1803951.8      1805951.1      1807508.3      1805803.8      251217.88      13.441222    
     41400   20.7           4014.8694     -56349.47       16606.284      1807935.8      1807722.2      1805545.6      1807067.9      251217.88      13.441222    
     41600   20.8           4001.8318     -56330.211      16552.358      1806846.6      1804959.2      1809137.4      1806981.1      251217.88      13.441222    
     41800   20.9           4025.3308     -56424.214      16649.555      1804158.8      1809344.4      1804811.8      1806105        251217.88      13.441222    
     42000   21             3995.849      -56522.444      16527.612      1804803.7      1804768.9      1803519.8      1804364.1      251217.88      13.441222    
     42200   21.1           4009.8018     -56399.953      16585.324      1807858.5      1805709.7      1805091.1      1806219.7      251217.88      13.441222    
     42400   21.2           4014.9669     -56536.341      16606.688      1803797.9      1806285.8      1804520.9      1804868.2      251217.88      13.441222    
     42600   21.3           3985.8964     -56471.182      16486.446      1806861.9      1804339.6      1803776.9      1804992.8      251217.88      13.441222    
     42800   21.4           4011.0288     -56501.605      16590.399      1804892.9      1803239.8      1807510.6      1805214.4      251217.88      13.441222    
     43000   21.5           4004.8775     -56474.941      16564.956      1806952.7      1806380.6      1802872.6      1805402        251217.88      13.441222    
     43200   21.6           4016.7131     -56547.181      16613.91       1805948        1804248        1803970.7      1804722.3      251217.88      13.441222    
     43400   21.7           4038.333      -56553.304      16703.334      1801368.2      1806179.7      1806705.4      1804751.1      251217.88      13.441222    
     43600   21.8           4017.545      -56363.147      16617.351      1804373        1806466.8      1809840.3      1806893.4      251217.88      13.441222    
     43800   21.9           3991.5876     -56431.091      16509.986      1803565.1      1807187.2      1805968.2      1805573.5      251217.88      13.441222    
     44000   22             3983.3177     -56356.322      16475.78       1804820.2      1809738.3      1804930        1806496.2      251217.88      13.441222    
     44200   22.1           4009.4697     -56580.928      16583.95       1804574.5      1803978.9      1802981        1803844.8      251217.88      13.441222    
     44400   22.2           3987.9412     -56448.302      16494.904      1805147.2      1807218.3      1803325.8      1805230.4      251217.88      13.441222    
     44600   22.3           4015.0245     -56423.886      16606.926      1806660.8      1805983.5      1805969.1      1806204.5      251217.88      13.441222    
     44800   22.4           4018.5302     -56423.707      16621.426      1804027.9      1806624        1808324.5      1806325.5      251217.88      13.441222    
     45000   22.5           4008.7392     -56471.795      16580.928      1806241.3      1804889.6      1804510        1805213.6      251217.88      13.441222    
     45200   22.6           4019.5777     -56559.475      16625.759      1803359.7      1804449.6      1805194.6      1804334.6      251217.88      13.441222    
     45400   22.7           4009.4349     -56618.667      16583.806      1805357.4      1801896.9      1803425.4      1803559.9      251217.88      13.441222    
     45600   22.8           3999.5689     -56550.172      16542.998      1803991.4      1805188        1803039.9      1804073.1      251217.88      13.441222    
     45800   22.9           3992.2592     -56556.525      16512.764      1803038.9      1805049.7      1803935.4      1804008        251217.88      13.441222    
     46000   23             3956.3141     -56479.162      16364.088      1804766.7      1804079.4      1803683        1804176.4      251217.88      13.441222    
     46200   23.1           4012.428      -56511.797      16596.186      1805865.2      1806499.1      1802255.5      1804873.3      251217.88      13.441222    
     46400   23.2           4003.558      -56522.483      16559.498      1802995.6      1805017.4      1806036.4      1804683.1      251217.88      13.441222    
     46600   23.3           4007.4821     -56473.896      16575.729      1803120.3      1804600.3      1807428.7      1805049.8      251217.88      13.441222    
     46800   23.4           3970.3001     -56493.537      16421.937      1806257.3      1804170.5      1802720.7      1804382.8      251217.88      13.441222    
     47000   23.5           3996.7568     -56468.214      16531.367      1806176.7      1804982.7      1804045.5      1805068.3      251217.88      13.441222    
     47200   23.6           3993.7524     -56568.424      16518.94       1802017.9      1804079        1804954.5      1803683.8      251217.88      13.441222    
     47400   23.7           3982.4162     -56456.024      16472.051      1805340.5      1802872.7      1806970.8      1805061.3      251217.88      13.441222    
     47600   23.8           4003.7563     -56437.907      16560.318      1804492.9      1806414.5      1805681.2      1805529.5      251217.88      13.441222    
     47800   23.9           3984.4562     -56469.338      16480.489      1804317.4      1806144.2      1804254        1804905.2      251217.88      13.441222    
     48000   24             3987.3638     -56486.224      16492.516      1808070.8      1802339.5      1804066.5      1804825.6      251217.88      13.441222    
     48200   24.1           4009.4119     -56513.515      16583.711      1806500.4      1804060.5      1803389.6      1804650.2      251217.88      13.441222    
     48400   24.2           3995.9202     -56426.733      16527.907      1804143.9      1804283.7      1808315.9      1805581.2      251217.88      13.441222    
     48600   24.3           4020.0507     -56442.178      16627.715      1803219.3      1806738.4      1808195.9      1806051.2      251217.88      13.441222    
     48800   24.4           3998.8718     -56314.302      16540.115      1806127.9      1806639.2      1809273.9      1807347        251217.88      13.441222    
     49000   24.5           3973.2858     -56355.48       16434.286      1804413.8      1805694.8      1808767.9      1806292.2      251217.88      13.441222    
     49200   24.6           3989.6032     -56469.133      16501.778      1803538.5      1802841.9      1808788.2      1805056.2      251217.88      13.441222    
     49400   24.7           4016.2152     -56491.51       16611.851      1804950.8      1802777.5      1807689.6      1805139.3      251217.88      13.441222    
     49600   24.8           3990.1815     -56340.449      16504.17       1805214.9      1807253.9      1807408.1      1806625.6      251217.88      13.441222    
     49800   24.9           4013.7772     -56413.707      16601.767      1806681.9      1804974.1      1806877.4      1806177.8      251217.88      13.441222    
     50000   25             4048.6657     -56570.849      16746.072      1802160.6      1805341.8      1807161.7      1804888.1      251217.88      13.441222    
Loop time of 68.0131 on 1 procs for 50000 steps with 32000 atoms

Performance: 31.759 ns/day, 0.756 hours/ns, 735.153 timesteps/s, 23.525 Matom-step/s
99.7% CPU use with 1 MPI tasks x 1 OpenMP threads

MPI task timing breakdown:
Section |  min time  |  avg time  |  max time  |%varavg| %total
---------------------------------------------------------------
Pair    | 39.164     | 39.164     | 39.164     |   0.0 | 57.58
Neigh   | 0.25809    | 0.25809    | 0.25809    |   0.0 |  0.38
Comm    | 24.23      | 24.23      | 24.23      |   0.0 | 35.63
Output  | 0.11775    | 0.11775    | 0.11775    |   0.0 |  0.17
Modify  | 2.1621     | 2.1621     | 2.1621     |   0.0 |  3.18
Other   |            | 2.081      |            |       |  3.06

Nlocal:          32000 ave       32000 max       32000 min
Histogram: 1 0 0 0 0 0 0 0 0 0
Nghost:          30251 ave       30251 max       30251 min
Histogram: 1 0 0 0 0 0 0 0 0 0
Neighs:    4.10661e+06 ave 4.10661e+06 max 4.10661e+06 min
Histogram: 1 0 0 0 0 0 0 0 0 0

Total # of neighbors = 4106606
Ave neighs/atom = 128.33144
Neighbor list builds = 707
Dangerous builds = 0
Total wall time: 0:01:10
