LAMMPS (10 Sep 2025)
KOKKOS mode with Kokkos version 4.6.2 is enabled
  using double precision
  using view layout = legacy
  will use up to 1 GPU(s) per node
  using 1 OpenMP thread(s) per MPI task
package kokkos
package kokkos newton on neigh half comm device
dimension       3
units           metal
atom_style      atomic
boundary        p p p

# --- Create FCC Cu lattice ---
#lattice         fcc 3.52
#region          box block 0 20 0 20 0 20
#create_box      1 box
#create_atoms    1 box
#mass            1 63.546

read_data       ../../../eos/0.73V/Cu-0.73V.lmp
Reading data file ...
  orthogonal box = (3.5055328 3.5055328 3.5055328) to (66.894467 66.894467 66.894467)
  1 by 1 by 1 MPI processor grid
  reading atoms ...
  32000 atoms
  reading velocities ...
  32000 velocities
  read_data CPU = 0.128 seconds
#change_box     all x scale _scale_ y scale _scale_ z scale _scale_ remap

neighbor        2.0 bin
neigh_modify    delay 0 every 1 check yes

pair_style      eam/alloy
pair_coeff      * * Cu-EAM-Z1622old.eam.alloy Cu

shell           "mkdir -p dumps"

variable	thold equal 4000
variable	itemp equal 2*4000
variable	runNVE equal 50000
variable	tstep equal 0.0005
variable	ph string 4000K-0.73V

timestep        ${tstep}
timestep        0.0005
thermo          200
thermo_style    custom step time temp pe ke pxx pyy pzz press vol density
#thermo_modify	norm yes

dump        	RDUMP all custom 20000 dumps/${ph}-NV-4000K-*.xyz id type x y z
dump        	RDUMP all custom 20000 dumps/4000K-0.73V-NV-4000K-*.xyz id type x y z

#NV  4000K calculation
velocity 		all create ${itemp}  23796
velocity 		all create 8000  23796

fix 			LANG all langevin ${thold} ${thold} $(300.0*dt) 33948
fix 			LANG all langevin 4000 ${thold} $(300.0*dt) 33948
fix 			LANG all langevin 4000 4000 $(300.0*dt) 33948
fix 			LANG all langevin 4000 4000 0.14999999999999999445 33948
fix 			NVE all nve
run  			${runNVE}
run  			50000
Neighbor list info ...
  update: every = 1 steps, delay = 0 steps, check = yes
  max neighbors/atom: 2000, page size: 100000
  master list distance cutoff = 7.859375
  ghost atom cutoff = 7.859375
  binsize = 7.859375, bins = 9 9 9
  1 neighbor lists, perpetual/occasional/extra = 1 0 0
  (1) pair eam/alloy/kk, perpetual
      attributes: half, newton on, kokkos_device
      pair build: half/bin/newton/kk/device
      stencil: half/bin/3d
      bin: kk/device
Per MPI rank memory allocation (min/avg/max) = 11.5 | 11.5 | 11.5 Mbytes
   Step          Time           Temp          PotEng         KinEng          Pxx            Pyy            Pzz           Press          Volume        Density    
         0   0              8000          -76267.184      33089.563      1544684.7      1543865.7      1543896.2      1544148.9      254706.69      13.257113    
       200   0.1            4005.758      -59758.644      16568.598      1694187.1      1694707.7      1695981.5      1694958.7      254706.69      13.257113    
       400   0.2            4014.8141     -59796.194      16606.056      1694563.1      1695199.1      1695070        1694944.1      254706.69      13.257113    
       600   0.3            3998.2603     -59736.811      16537.586      1693838.8      1696815.2      1696094.8      1695582.9      254706.69      13.257113    
       800   0.4            3980.5218     -59612.875      16464.216      1696646.4      1695130.5      1698091.4      1696622.8      254706.69      13.257113    
      1000   0.5            3972.0721     -59680.149      16429.266      1697039.8      1694865.2      1695194.3      1695699.8      254706.69      13.257113    
      1200   0.6            3977.4407     -59533.719      16451.472      1695922.4      1696043.7      1700401.9      1697456        254706.69      13.257113    
      1400   0.7            3999.5341     -59747.233      16542.854      1692762.8      1694993.3      1697939.2      1695231.8      254706.69      13.257113    
      1600   0.8            3990.7924     -59649.373      16506.697      1695749.9      1696413        1696978.5      1696380.5      254706.69      13.257113    
      1800   0.9            4021.4835     -59683.951      16633.641      1697143.5      1696542.2      1695581        1696422.2      254706.69      13.257113    
      2000   1              4011.9761     -59537.258      16594.317      1697018.1      1698608.1      1698552.8      1698059.7      254706.69      13.257113    
      2200   1.1            4038.683      -59641.868      16704.782      1697538        1698268.2      1696033.5      1697279.9      254706.69      13.257113    
      2400   1.2            4004.6849     -59617.988      16564.159      1696233.1      1696029.8      1699060.4      1697107.7      254706.69      13.257113    
      2600   1.3            4019.7844     -59633.839      16626.614      1694831        1699163.6      1696959.1      1696984.6      254706.69      13.257113    
      2800   1.4            3996.1334     -59665.59       16528.789      1695122.4      1696484        1697225.7      1696277.4      254706.69      13.257113    
      3000   1.5            3991.7858     -59670.92       16510.806      1694990.4      1695817.3      1697238.7      1696015.5      254706.69      13.257113    
      3200   1.6            4003.0674     -59736.807      16557.469      1694645.9      1694328.3      1697521.3      1695498.5      254706.69      13.257113    
      3400   1.7            4005.0087     -59635.893      16565.498      1698902.6      1698034.8      1693241.2      1696726.2      254706.69      13.257113    
      3600   1.8            4009.671      -59593.794      16584.783      1697672.9      1695513        1698092.6      1697092.9      254706.69      13.257113    
      3800   1.9            4022.0147     -59588.645      16635.839      1698927.5      1698622.8      1695555.9      1697702.1      254706.69      13.257113    
      4000   2              4002.4969     -59568.97       16555.109      1697061.8      1697056.8      1698466.2      1697528.2      254706.69      13.257113    
      4200   2.1            4003.2367     -59675.915      16558.169      1694634.3      1698795.2      1694664.1      1696031.2      254706.69      13.257113    
      4400   2.2            3985.6899     -59669.495      16485.592      1692655        1695361.9      1699282.8      1695766.6      254706.69      13.257113    
      4600   2.3            3947.9249     -59723.348      16329.389      1694246.9      1693625.8      1695825.7      1694566.1      254706.69      13.257113    
      4800   2.4            3959.6181     -59687.832      16377.754      1695438.4      1695632.4      1694882        1695317.6      254706.69      13.257113    
      5000   2.5            3990.6999     -59692.172      16506.315      1695815.3      1694963        1696644.2      1695807.5      254706.69      13.257113    
      5200   2.6            3996.5696     -59629.3        16530.593      1695283.8      1698045.8      1697434.4      1696921.3      254706.69      13.257113    
      5400   2.7            4009.9426     -59698.71       16585.906      1696589.3      1692284.9      1699276.2      1696050.2      254706.69      13.257113    
      5600   2.8            4001.3214     -59698.727      16550.247      1696560.8      1695785.5      1695924.8      1696090.4      254706.69      13.257113    
      5800   2.9            3979.779      -59646.686      16461.144      1695907.6      1697029.6      1695845.6      1696260.9      254706.69      13.257113    
      6000   3              4007.7095     -59678.437      16576.67       1697695.7      1695201.9      1695644.1      1696180.6      254706.69      13.257113    
      6200   3.1            3982.6316     -59648.734      16472.942      1695536.3      1696243.5      1696399.1      1696059.6      254706.69      13.257113    
      6400   3.2            3987.795      -59606.311      16494.299      1699409.4      1696037.8      1695467.2      1696971.5      254706.69      13.257113    
      6600   3.3            4001.4852     -59726.321      16550.924      1693686.9      1697390        1695780.3      1695619.1      254706.69      13.257113    
      6800   3.4            3999.4043     -59582.332      16542.318      1697126.7      1697733.2      1696778.3      1697212.7      254706.69      13.257113    
      7000   3.5            4016.9202     -59584.272      16614.767      1698054.6      1698557.9      1696678.5      1697763.7      254706.69      13.257113    
      7200   3.6            4014.2219     -59511.049      16603.606      1697921.3      1697193.8      1700055.5      1698390.2      254706.69      13.257113    
      7400   3.7            4017.7627     -59453.275      16618.252      1701803.8      1697494.2      1698239.4      1699179.1      254706.69      13.257113    
      7600   3.8            4007.2856     -59488.674      16574.916      1699323.7      1698827.1      1697812.9      1698654.5      254706.69      13.257113    
      7800   3.9            4010.4873     -59586.139      16588.159      1697019.7      1696826        1698179.5      1697341.7      254706.69      13.257113    
      8000   4              4011.4633     -59570.149      16592.196      1697784.2      1696221.1      1699686.7      1697897.4      254706.69      13.257113    
      8200   4.1            3961.8333     -59530.987      16386.917      1697910.9      1697976.1      1695722.1      1697203        254706.69      13.257113    
      8400   4.2            4027.9112     -59745.988      16660.228      1696163.6      1696524.6      1694023.6      1695570.6      254706.69      13.257113    
      8600   4.3            3995.3312     -59643.057      16525.47       1697666.9      1696858        1694955.2      1696493.4      254706.69      13.257113    
      8800   4.4            3989.7497     -59470.072      16502.384      1695434.1      1700150        1699860.2      1698481.4      254706.69      13.257113    
      9000   4.5            4046.3769     -59685.281      16736.605      1697116.6      1695555.2      1697955.4      1696875.7      254706.69      13.257113    
      9200   4.6            4027.3369     -59653.738      16657.852      1697130.1      1698727        1695242.6      1697033.2      254706.69      13.257113    
      9400   4.7            4002.8704     -59687.46       16556.654      1696289.9      1694389        1697342.9      1696007.3      254706.69      13.257113    
      9600   4.8            3970.9849     -59556.514      16424.769      1697454.8      1695934.8      1698063.7      1697151.1      254706.69      13.257113    
      9800   4.9            4007.6122     -59748.375      16576.267      1694454.4      1695745        1696182.4      1695460.6      254706.69      13.257113    
     10000   5              4004.0452     -59781.721      16561.513      1695797.1      1694919.5      1694423.4      1695046.7      254706.69      13.257113    
     10200   5.1            3966.1683     -59656.867      16404.847      1696292.2      1695316.8      1695873        1695827.3      254706.69      13.257113    
     10400   5.2            3967.9489     -59648.608      16412.212      1693655.3      1696706.7      1697207.4      1695856.5      254706.69      13.257113    
     10600   5.3            3980.4726     -59585.948      16464.012      1697533.6      1698460.5      1694790.2      1696928.1      254706.69      13.257113    
     10800   5.4            4026.2681     -59613.62       16653.432      1697725.7      1697268.3      1697057.5      1697350.5      254706.69      13.257113    
     11000   5.5            4017.8252     -59673.77       16618.51       1698028.9      1696452.7      1695117.7      1696533.1      254706.69      13.257113    
     11200   5.6            4015.5367     -59675.305      16609.044      1695829.7      1695951.8      1697670.3      1696483.9      254706.69      13.257113    
     11400   5.7            4002.7822     -59617.093      16556.289      1699381.7      1697442.6      1694151.9      1696992.1      254706.69      13.257113    
     11600   5.8            3990.7365     -59571.105      16506.466      1697888.3      1693600.2      1699960.9      1697149.8      254706.69      13.257113    
     11800   5.9            4018.6142     -59654.166      16621.773      1695501.3      1699193        1695702.7      1696799        254706.69      13.257113    
     12000   6              4005.7211     -59652.624      16568.445      1697261.3      1697689.1      1694728.1      1696559.5      254706.69      13.257113    
     12200   6.1            3991.0207     -59670.151      16507.641      1697902        1695031.9      1694849.1      1695927.7      254706.69      13.257113    
     12400   6.2            4015.4089     -59664.141      16608.516      1695533.1      1698239.5      1695998.3      1696590.3      254706.69      13.257113    
     12600   6.3            4042.8532     -59568.324      16722.031      1700150.9      1697330.3      1697793        1698424.7      254706.69      13.257113    
     12800   6.4            4010.5705     -59700.297      16588.503      1692475.5      1697031.9      1699297.1      1696268.2      254706.69      13.257113    
     13000   6.5            4002.1868     -59657.362      16553.827      1696674.8      1694812.7      1697619.5      1696369        254706.69      13.257113    
     13200   6.6            3982.7875     -59421.4        16473.587      1698215.5      1700011.5      1699439.6      1699222.2      254706.69      13.257113    
     13400   6.7            4011.4553     -59667.14       16592.163      1697340.5      1694612.9      1697718.4      1696557.3      254706.69      13.257113    
     13600   6.8            3981.4596     -59642.499      16468.095      1695393.8      1697314.8      1695774.3      1696160.9      254706.69      13.257113    
     13800   6.9            4002.9341     -59614.998      16556.918      1700132.3      1695091.8      1695375.7      1696866.6      254706.69      13.257113    
     14000   7              3968.8015     -59436.207      16415.738      1696846.3      1698631.4      1700202.4      1698560        254706.69      13.257113    
     14200   7.1            4015.6123     -59671.028      16609.357      1696175.2      1697252.6      1695021.3      1696149.7      254706.69      13.257113    
     14400   7.2            3974.8602     -59532.977      16440.798      1698625.8      1696230.2      1696925.6      1697260.5      254706.69      13.257113    
     14600   7.3            3978.8649     -59682.964      16457.363      1693695.8      1696093.2      1697617        1695802        254706.69      13.257113    
     14800   7.4            4031.35       -59702.043      16674.451      1698463.1      1694898.8      1696121.8      1696494.6      254706.69      13.257113    
     15000   7.5            4002.3807     -59671.354      16554.629      1694338.8      1695373.2      1698793.6      1696168.6      254706.69      13.257113    
     15200   7.6            3983.5115     -59770.421      16476.582      1695094        1694770        1694214.5      1694692.8      254706.69      13.257113    
     15400   7.7            3967.4334     -59626.874      16410.08       1695578.3      1697139.6      1695793.9      1696170.6      254706.69      13.257113    
     15600   7.8            4024.1674     -59683.648      16644.743      1697829.4      1698221.1      1693021.6      1696357.4      254706.69      13.257113    
     15800   7.9            3987.0767     -59604.443      16491.328      1697435.1      1695269        1698187.3      1696963.8      254706.69      13.257113    
     16000   8              4024.7864     -59670.288      16647.303      1693782.7      1696425.9      1699274.6      1696494.4      254706.69      13.257113    
     16200   8.1            4011.0287     -59612.462      16590.398      1697517.4      1695835.1      1698149.5      1697167.4      254706.69      13.257113    
     16400   8.2            4017.3262     -59656.651      16616.446      1698728.2      1694895.4      1696241.3      1696621.6      254706.69      13.257113    
     16600   8.3            3995.1706     -59694.058      16524.806      1695891.7      1695781.5      1695920.2      1695864.5      254706.69      13.257113    
     16800   8.4            4001.0902     -59629.341      16549.291      1697849.5      1696523.1      1695896.3      1696756.3      254706.69      13.257113    
     17000   8.5            4011.5069     -59582.267      16592.377      1699344.3      1696009.3      1697325.9      1697559.8      254706.69      13.257113    
     17200   8.6            3989.8803     -59542.602      16502.924      1700351.2      1695519.7      1696924.5      1697598.5      254706.69      13.257113    
     17400   8.7            3996.2886     -59692.875      16529.431      1697308.9      1693726.6      1696410.5      1695815.3      254706.69      13.257113    
     17600   8.8            3990.9094     -59655.434      16507.181      1696574.8      1695203.3      1697254.5      1696344.2      254706.69      13.257113    
     17800   8.9            3993.9739     -59612.308      16519.856      1697140.1      1698536.3      1694699.5      1696792        254706.69      13.257113    
     18000   9              3998.2376     -59606.531      16537.492      1696435.3      1697272.3      1696828.3      1696845.3      254706.69      13.257113    
     18200   9.1            4007.272      -59612.149      16574.86       1696472.7      1698951.1      1695864.5      1697096.1      254706.69      13.257113    
     18400   9.2            3996.7257     -59611.647      16531.239      1698467        1697075.3      1695213.1      1696918.5      254706.69      13.257113    
     18600   9.3            4000.4258     -59802.104      16546.543      1696622.6      1694474.6      1693128.5      1694741.9      254706.69      13.257113    
     18800   9.4            4006.2754     -59693.552      16570.738      1695740.2      1695789.8      1696905.1      1696145        254706.69      13.257113    
     19000   9.5            3996.0713     -59630.2        16528.532      1697065.2      1696223.7      1696724.1      1696671        254706.69      13.257113    
     19200   9.6            4019.8957     -59599.193      16627.074      1697823.4      1696328.8      1697652.3      1697268.1      254706.69      13.257113    
     19400   9.7            3995.5803     -59714.475      16526.501      1691819        1698261.8      1696801.5      1695627.4      254706.69      13.257113    
     19600   9.8            3977.9434     -59615.786      16453.551      1696329.9      1697795.5      1695494.1      1696539.8      254706.69      13.257113    
     19800   9.9            4005.2187     -59662.717      16566.367      1694285.7      1699200.3      1696173.7      1696553.2      254706.69      13.257113    
     20000   10             4007.7249     -59668.581      16576.733      1697186.7      1695705.1      1696264.2      1696385.3      254706.69      13.257113    
     20200   10.1           3992.2442     -59731.582      16512.702      1696151.7      1694460.2      1695443.1      1695351.7      254706.69      13.257113    
     20400   10.2           4001.2259     -59688.41       16549.852      1697485.3      1692547.1      1698177.9      1696070.1      254706.69      13.257113    
     20600   10.3           4025.9474     -59556.76       16652.105      1699217.3      1696425.6      1698619.3      1698087.4      254706.69      13.257113    
     20800   10.4           4012.5364     -59528.367      16596.634      1694606.8      1699271.2      1700570.3      1698149.4      254706.69      13.257113    
     21000   10.5           4023.6661     -59637.769      16642.669      1696573.2      1696848.5      1697968.2      1697130        254706.69      13.257113    
     21200   10.6           4008.8094     -59790.841      16581.219      1694789.5      1694491.6      1695065.9      1694782.4      254706.69      13.257113    
     21400   10.7           3971.8532     -59638.448      16428.361      1694344.4      1697833.9      1695769.6      1695982.6      254706.69      13.257113    
     21600   10.8           3998.8429     -59745.628      16539.995      1694599.9      1696289.6      1694270.3      1695053.2      254706.69      13.257113    
     21800   10.9           3985.5854     -59788.546      16485.16       1696123.5      1692663.8      1694534.4      1694440.6      254706.69      13.257113    
     22000   11             3984.2843     -59667.466      16479.778      1698919.3      1694527.8      1694868.4      1696105.2      254706.69      13.257113    
     22200   11.1           3983.0468     -59669.671      16474.66       1692531.1      1697396.6      1698101.3      1696009.7      254706.69      13.257113    
     22400   11.2           3958.9965     -59623.674      16375.183      1697481.8      1696637        1694149.9      1696089.6      254706.69      13.257113    
     22600   11.3           3992.4491     -59717.068      16513.55       1697875.8      1692864.9      1695813.5      1695518.1      254706.69      13.257113    
     22800   11.4           4009.1619     -59663.389      16582.677      1695555.7      1695259        1698576.1      1696463.6      254706.69      13.257113    
     23000   11.5           3991.3475     -59683.459      16508.993      1693408.1      1695274        1699027.7      1695903.3      254706.69      13.257113    
     23200   11.6           3992.9752     -59751.182      16515.725      1693398        1695981.3      1696421.8      1695267        254706.69      13.257113    
     23400   11.7           3993.0799     -59756.294      16516.159      1694335        1696466.1      1694642.6      1695147.9      254706.69      13.257113    
     23600   11.8           4003.546      -59773.866      16559.449      1695031.3      1695754.8      1694207.4      1694997.8      254706.69      13.257113    
     23800   11.9           3998.5704     -59697.908      16538.868      1696161.8      1694833.8      1695822.1      1695605.9      254706.69      13.257113    
     24000   12             4008.4271     -59554.175      16579.638      1696892.5      1695198.7      1701184.3      1697758.5      254706.69      13.257113    
     24200   12.1           4019.5782     -59514.31       16625.761      1696530.4      1698146.7      1700318.2      1698331.8      254706.69      13.257113    
     24400   12.2           4039.5273     -59520.813      16708.274      1699039.2      1698755.6      1699265.5      1699020.1      254706.69      13.257113    
     24600   12.3           4020.2772     -59443.228      16628.652      1698058.3      1699147.8      1700678.7      1699295        254706.69      13.257113    
     24800   12.4           3992.3819     -59464.934      16513.272      1699177.7      1695630.1      1700702.2      1698503.4      254706.69      13.257113    
     25000   12.5           4003.0325     -59483.365      16557.324      1698864.9      1698861.9      1698028.4      1698585.1      254706.69      13.257113    
     25200   12.6           3994.9524     -59613.894      16523.904      1698913.7      1695806        1695603.5      1696774.4      254706.69      13.257113    
     25400   12.7           4001.154      -59724.972      16549.555      1695272        1696110.6      1694883.4      1695422        254706.69      13.257113    
     25600   12.8           4004.2017     -59706.86       16562.161      1697981.6      1695870.2      1693448.1      1695766.6      254706.69      13.257113    
     25800   12.9           3993.9094     -59563.711      16519.59       1699053        1696697.4      1696349.7      1697366.7      254706.69      13.257113    
     26000   13             4010.3002     -59596.967      16587.385      1698128.8      1696359        1697294.8      1697260.9      254706.69      13.257113    
     26200   13.1           4013.3047     -59679.727      16599.813      1699769        1697976.8      1690978.9      1696241.6      254706.69      13.257113    
     26400   13.2           4016.6729     -59723.484      16613.744      1696279.3      1697188.1      1693662.7      1695710        254706.69      13.257113    
     26600   13.3           3984.2118     -59645.58       16479.479      1697790.9      1695867.1      1694821.7      1696159.9      254706.69      13.257113    
     26800   13.4           3981.2293     -59583.326      16467.142      1698888.7      1696825.5      1695471.4      1697061.9      254706.69      13.257113    
     27000   13.5           3971.7845     -59542.399      16428.077      1696237.3      1696843.4      1699179.8      1697420.2      254706.69      13.257113    
     27200   13.6           3991.1909     -59535.894      16508.346      1697409.4      1697277.2      1698113.5      1697600        254706.69      13.257113    
     27400   13.7           4018.2123     -59573.442      16620.111      1695955.6      1698596.6      1698707.4      1697753.2      254706.69      13.257113    
     27600   13.8           4002.3366     -59574.007      16554.446      1699351.3      1697079.7      1695635.1      1697355.4      254706.69      13.257113    
     27800   13.9           4006.5651     -59531.731      16571.936      1697139.8      1697449.6      1699325.3      1697971.6      254706.69      13.257113    
     28000   14             4001.6949     -59549.14       16551.792      1698489.2      1694579.5      1700208.6      1697759.1      254706.69      13.257113    
     28200   14.1           4009.7616     -59591.196      16585.157      1694642        1697266.1      1699937.3      1697281.8      254706.69      13.257113    
     28400   14.2           3995.9901     -59498.576      16528.196      1698242.5      1696867.9      1699320.5      1698143.6      254706.69      13.257113    
     28600   14.3           4029.7701     -59496.281      16667.917      1699485.9      1699749.3      1697619.7      1698951.7      254706.69      13.257113    
     28800   14.4           3996.9162     -59512.407      16532.026      1697492        1697485        1699462        1698146.3      254706.69      13.257113    
     29000   14.5           4022.5927     -59603.947      16638.229      1697393.8      1697426.3      1697855.4      1697558.5      254706.69      13.257113    
     29200   14.6           4003.8067     -59580.568      16560.527      1695248.7      1699853.2      1697121.1      1697407.7      254706.69      13.257113    
     29400   14.7           3993.7438     -59652.383      16518.905      1697833.6      1697749.9      1693724.8      1696436.1      254706.69      13.257113    
     29600   14.8           4017.8777     -59651.461      16618.727      1697526.1      1694898.1      1698199.9      1696874.7      254706.69      13.257113    
     29800   14.9           4006.8955     -59613.656      16573.302      1696201.2      1696268        1698484.9      1696984.7      254706.69      13.257113    
     30000   15             3999.4037     -59696.371      16542.315      1696143.2      1693859.8      1697357.7      1695786.9      254706.69      13.257113    
     30200   15.1           4002.7905     -59666.724      16556.323      1697760.2      1695863.6      1695668        1696430.6      254706.69      13.257113    
     30400   15.2           4000.4772     -59658.088      16546.755      1697291.2      1696715.1      1694302        1696102.8      254706.69      13.257113    
     30600   15.3           4010.4031     -59648.014      16587.811      1697784.9      1697345.5      1694856.3      1696662.2      254706.69      13.257113    
     30800   15.4           3989.7366     -59549.271      16502.33       1697094.7      1697914.9      1697763.7      1697591.1      254706.69      13.257113    
     31000   15.5           3959.0367     -59634.944      16375.349      1696537.3      1695039.5      1696219        1695931.9      254706.69      13.257113    
     31200   15.6           3956.9042     -59601.14       16366.529      1696952.8      1695437.1      1696846.3      1696412        254706.69      13.257113    
     31400   15.7           3998.1703     -59655.103      16537.214      1694243.3      1698245.7      1696613.5      1696367.5      254706.69      13.257113    
     31600   15.8           3995.6096     -59667.952      16526.622      1694486.7      1697087.3      1697214.6      1696262.8      254706.69      13.257113    
     31800   15.9           4022.3122     -59735.246      16637.069      1694928        1694794        1697606        1695776        254706.69      13.257113    
     32000   16             4016.8683     -59542.002      16614.552      1697856.4      1698008.5      1698166.4      1698010.4      254706.69      13.257113    
     32200   16.1           4018.0353     -59668.816      16619.379      1698132.1      1694687.5      1696829.9      1696549.8      254706.69      13.257113    
     32400   16.2           4001.0938     -59612.564      16549.306      1697681.4      1697156.2      1696433.8      1697090.5      254706.69      13.257113    
     32600   16.3           4023.9977     -59763.682      16644.041      1699082.4      1693706.3      1693946.6      1695578.4      254706.69      13.257113    
     32800   16.4           3998.0342     -59701.451      16536.651      1695373        1695246.3      1696874.9      1695831.4      254706.69      13.257113    
     33000   16.5           3982.1033     -59682.144      16470.757      1694107.1      1696749.5      1696353.9      1695736.8      254706.69      13.257113    
     33200   16.6           3973.9235     -59713.453      16436.924      1695357.5      1695258.6      1694831.1      1695149.1      254706.69      13.257113    
     33400   16.7           4000.6435     -59633.557      16547.443      1696179.2      1697671.4      1695929.9      1696593.5      254706.69      13.257113    
     33600   16.8           3996.7444     -59714.944      16531.316      1694172.9      1698189.6      1694582.1      1695648.2      254706.69      13.257113    
     33800   16.9           4028.078      -59843.675      16660.918      1694114.8      1695492.4      1693381        1694329.4      254706.69      13.257113    
     34000   17             4017.6561     -59682.375      16617.81       1694988.3      1696771.6      1697051.5      1696270.5      254706.69      13.257113    
     34200   17.1           3997.0416     -59558.468      16532.545      1695947.1      1698416.4      1698661.6      1697675        254706.69      13.257113    
     34400   17.2           3996.4526     -59487.608      16530.109      1700414.4      1695520        1698814.8      1698249.7      254706.69      13.257113    
     34600   17.3           3968.6536     -59537.701      16415.127      1697596        1698578        1695921.7      1697365.2      254706.69      13.257113    
     34800   17.4           3997.2265     -59653.143      16533.31       1694750.9      1696022.7      1698265.5      1696346.4      254706.69      13.257113    
     35000   17.5           4009.5386     -59621.561      16584.235      1696329.6      1698413.3      1696545.7      1697096.2      254706.69      13.257113    
     35200   17.6           4019.7672     -59649.773      16626.543      1695884.8      1697650.7      1696864.1      1696799.9      254706.69      13.257113    
     35400   17.7           4021.004      -59584.552      16631.658      1692970.7      1700146        1700079        1697731.9      254706.69      13.257113    
     35600   17.8           4017.7279     -59538.255      16618.108      1698221.5      1698404.5      1697952.7      1698192.9      254706.69      13.257113    
     35800   17.9           4002.6624     -59499.041      16555.794      1698718.3      1698205.6      1697903.9      1698275.9      254706.69      13.257113    
     36000   18             3993.2737     -59485.089      16516.96       1695811.2      1699536.8      1699787.4      1698378.4      254706.69      13.257113    
     36200   18.1           4015.6101     -59718.742      16609.348      1695632.3      1696483.3      1695576.2      1695897.3      254706.69      13.257113    
     36400   18.2           4003.7191     -59787.167      16560.165      1695823.1      1696235.4      1692371.1      1694809.9      254706.69      13.257113    
     36600   18.3           3985.9304     -59587.812      16486.587      1697989        1697022.3      1696070.5      1697027.3      254706.69      13.257113    
     36800   18.4           4026.9957     -59807.865      16656.441      1695647.5      1694414.1      1694715.1      1694925.6      254706.69      13.257113    
     37000   18.5           4003.0084     -59576.012      16557.225      1696633.7      1695897.3      1699962.3      1697497.8      254706.69      13.257113    
     37200   18.6           3989.1991     -59541.324      16500.107      1698099.2      1697824.5      1697210.2      1697711.3      254706.69      13.257113    
     37400   18.7           3999.6333     -59716.394      16543.265      1693390.8      1696966.8      1696561.9      1695639.8      254706.69      13.257113    
     37600   18.8           3982.6624     -59628.99       16473.07       1696636        1695782        1697042.8      1696486.9      254706.69      13.257113    
     37800   18.9           3997.5679     -59628.619      16534.722      1696149.6      1696442.4      1697700.1      1696764        254706.69      13.257113    
     38000   19             3995.6156     -59692.568      16526.647      1696184.5      1696188.7      1695329.3      1695900.8      254706.69      13.257113    
     38200   19.1           4032.2241     -59701.645      16678.067      1696008.5      1698150.5      1695713.6      1696624.2      254706.69      13.257113    
     38400   19.2           4022.4797     -59644.545      16637.762      1697154.7      1698894        1694728.4      1696925.7      254706.69      13.257113    
     38600   19.3           4002.1729     -59522.487      16553.769      1696878.9      1699386.1      1697871.6      1698045.5      254706.69      13.257113    
     38800   19.4           4045.8909     -59706.778      16734.595      1695580.1      1696806.3      1697151.7      1696512.7      254706.69      13.257113    
     39000   19.5           4016.4952     -59631.76       16613.009      1699994.5      1696017.3      1695043.8      1697018.6      254706.69      13.257113    
     39200   19.6           4001.4627     -59638.343      16550.831      1699445.4      1695996.9      1694468.5      1696637        254706.69      13.257113    
     39400   19.7           4007.244      -59726.422      16574.744      1696761.4      1695232.4      1694587.6      1695527.1      254706.69      13.257113    
     39600   19.8           3998.835      -59721.077      16539.963      1698642.5      1694693.5      1693467.3      1695601.1      254706.69      13.257113    
     39800   19.9           3984.3746     -59619.532      16480.152      1695186.2      1699080.3      1695325.9      1696530.8      254706.69      13.257113    
     40000   20             4008.4216     -59683.278      16579.615      1694109.4      1695846.9      1698631.9      1696196        254706.69      13.257113    
     40200   20.1           3985.118      -59670.759      16483.227      1695144.2      1697146.8      1695954.7      1696081.9      254706.69      13.257113    
     40400   20.2           4006.7743     -59838.35       16572.801      1695121.7      1693689.4      1693737.1      1694182.7      254706.69      13.257113    
     40600   20.3           3972.1726     -59746.513      16429.682      1695792.6      1695379        1693127.3      1694766.3      254706.69      13.257113    
     40800   20.4           3998.0785     -59791.818      16536.834      1695706.3      1693596.3      1695235.7      1694846.1      254706.69      13.257113    
     41000   20.5           4028.3618     -59839.335      16662.092      1694503.2      1694940.7      1694619.7      1694687.8      254706.69      13.257113    
     41200   20.6           3994.6575     -59567.507      16522.684      1697663.7      1697256.5      1696953.9      1697291.4      254706.69      13.257113    
     41400   20.7           3988.4646     -59660.927      16497.069      1696071.2      1697688.7      1694867.7      1696209.2      254706.69      13.257113    
     41600   20.8           4022.8899     -59733.333      16639.459      1696673.8      1693864.7      1697495.1      1696011.2      254706.69      13.257113    
     41800   20.9           4000.1437     -59677.975      16545.376      1699157.2      1695333.9      1694074.9      1696188.7      254706.69      13.257113    
     42000   21             3987.068      -59635.239      16491.292      1694042.3      1699003.1      1696569.6      1696538.3      254706.69      13.257113    
     42200   21.1           4008.9771     -59692.057      16581.913      1694017        1696512.8      1697946.8      1696158.9      254706.69      13.257113    
     42400   21.2           3996.4876     -59562.008      16530.254      1697470.6      1697960.7      1697140.1      1697523.8      254706.69      13.257113    
     42600   21.3           4013.3575     -59702.218      16600.031      1697551.2      1693808.5      1697066.3      1696142        254706.69      13.257113    
     42800   21.4           4001.6347     -59681.855      16551.543      1697840.6      1694180.9      1697047.3      1696356.3      254706.69      13.257113    
     43000   21.5           3982.7749     -59632.964      16473.535      1695820.1      1697474.7      1695325.7      1696206.8      254706.69      13.257113    
     43200   21.6           4022.3774     -59538.671      16637.339      1695724.4      1699630        1699052.8      1698135.7      254706.69      13.257113    
     43400   21.7           4023.7279     -59600.971      16642.925      1698187.8      1697353.3      1696972.7      1697504.6      254706.69      13.257113    
     43600   21.8           4013.8886     -59598.37       16602.227      1696883.5      1697039.9      1698246.8      1697390.1      254706.69      13.257113    
     43800   21.9           4005.1516     -59435.75       16566.09       1696498.8      1701209.2      1699620.2      1699109.4      254706.69      13.257113    
     44000   22             4005.7356     -59751.426      16568.505      1693055.7      1696835.7      1695805.8      1695232.4      254706.69      13.257113    
     44200   22.1           4005.8518     -59667.555      16568.986      1698046.7      1694735.8      1696553.6      1696445.4      254706.69      13.257113    
     44400   22.2           4001.9642     -59753.846      16552.906      1693350.6      1700371.5      1691826.2      1695182.8      254706.69      13.257113    
     44600   22.3           4031.523      -59757.47       16675.167      1694363.6      1696350.1      1696301        1695671.6      254706.69      13.257113    
     44800   22.4           4006.6206     -59630.749      16572.166      1695331.2      1697070.9      1698247.3      1696883.1      254706.69      13.257113    
     45000   22.5           3977.6849     -59722.595      16452.482      1695468.7      1694217        1695737.4      1695141        254706.69      13.257113    
     45200   22.6           3967.8184     -59554.607      16411.672      1698316.3      1696222.1      1696875.7      1697138        254706.69      13.257113    
     45400   22.7           3975.6145     -59631.994      16443.918      1697573.7      1694692.9      1696027.4      1696098        254706.69      13.257113    
     45600   22.8           4008.1752     -59782.549      16578.596      1695286.6      1693771.6      1695578.1      1694878.7      254706.69      13.257113    
     45800   22.9           3987.7234     -59761.41       16494.003      1691706.2      1696133.7      1696796.1      1694878.7      254706.69      13.257113    
     46000   23             3993.927      -59700.304      16519.662      1695136.8      1696551.2      1695402.9      1695697        254706.69      13.257113    
     46200   23.1           4010.7908     -59705.564      16589.415      1696627.5      1696176.1      1694831.6      1695878.4      254706.69      13.257113    
     46400   23.2           3987.249      -59663.542      16492.041      1695829.9      1697657.3      1695143.2      1696210.1      254706.69      13.257113    
     46600   23.3           3994.7677     -59738.218      16523.14       1695651.5      1697599.2      1692623.6      1695291.4      254706.69      13.257113    
     46800   23.4           3983.3984     -59694.381      16476.114      1697302.4      1695223.7      1694300.6      1695608.9      254706.69      13.257113    
     47000   23.5           3979.4856     -59654.769      16459.93       1696378.5      1695766.8      1696062.5      1696069.2      254706.69      13.257113    
     47200   23.6           3997.4094     -59718.574      16534.066      1696272.5      1694339.1      1696439.9      1695683.8      254706.69      13.257113    
     47400   23.7           4016.26       -59584.535      16612.036      1697557.3      1699138        1695619.2      1697438.2      254706.69      13.257113    
     47600   23.8           4007.4194     -59561.101      16575.47       1699308        1698338.1      1696205.6      1697950.6      254706.69      13.257113    
     47800   23.9           3985.3399     -59646.165      16484.144      1699341.3      1694252.6      1695463.3      1696352.4      254706.69      13.257113    
     48000   24             3970.7642     -59596.229      16423.856      1695473.8      1695387.2      1699356.1      1696739        254706.69      13.257113    
     48200   24.1           4027.9561     -59644.932      16660.413      1695255.2      1698039.2      1697579.6      1696958        254706.69      13.257113    
     48400   24.2           3970.751      -59555.076      16423.802      1697003.9      1697278.4      1696582.1      1696954.8      254706.69      13.257113    
     48600   24.3           4020.9743     -59709.251      16631.535      1698142.8      1693974.4      1695801.6      1695972.9      254706.69      13.257113    
     48800   24.4           4002.5737     -59594.594      16555.427      1695464        1699427.4      1696592.1      1697161.1      254706.69      13.257113    
     49000   24.5           3981.9527     -59591.18       16470.134      1696053.7      1697545.5      1697490.1      1697029.8      254706.69      13.257113    
     49200   24.6           4006.2734     -59777.678      16570.73       1693297.2      1694893.2      1696700.5      1694963.6      254706.69      13.257113    
     49400   24.7           3976.796      -59651.328      16448.805      1696068.2      1694924.8      1697197.7      1696063.6      254706.69      13.257113    
     49600   24.8           4000.1672     -59702.944      16545.473      1694609.1      1696037.5      1696663.1      1695769.9      254706.69      13.257113    
     49800   24.9           3988.5993     -59531.618      16497.626      1696739.4      1698808.5      1697970.8      1697839.6      254706.69      13.257113    
     50000   25             4010.4747     -59638.879      16588.107      1697407        1696666.5      1696249.7      1696774.4      254706.69      13.257113    
Loop time of 66.2436 on 1 procs for 50000 steps with 32000 atoms

Performance: 32.607 ns/day, 0.736 hours/ns, 754.790 timesteps/s, 24.153 Matom-step/s
99.8% CPU use with 1 MPI tasks x 1 OpenMP threads

MPI task timing breakdown:
Section |  min time  |  avg time  |  max time  |%varavg| %total
---------------------------------------------------------------
Pair    | 38.259     | 38.259     | 38.259     |   0.0 | 57.76
Neigh   | 0.25721    | 0.25721    | 0.25721    |   0.0 |  0.39
Comm    | 23.356     | 23.356     | 23.356     |   0.0 | 35.26
Output  | 0.11734    | 0.11734    | 0.11734    |   0.0 |  0.18
Modify  | 2.1933     | 2.1933     | 2.1933     |   0.0 |  3.31
Other   |            | 2.06       |            |       |  3.11

Nlocal:          32000 ave       32000 max       32000 min
Histogram: 1 0 0 0 0 0 0 0 0 0
Nghost:          29779 ave       29779 max       29779 min
Histogram: 1 0 0 0 0 0 0 0 0 0
Neighs:    4.03968e+06 ave 4.03968e+06 max 4.03968e+06 min
Histogram: 1 0 0 0 0 0 0 0 0 0

Total # of neighbors = 4039683
Ave neighs/atom = 126.24009
Neighbor list builds = 709
Dangerous builds = 0
Total wall time: 0:01:08
