LAMMPS (10 Sep 2025)
KOKKOS mode with Kokkos version 4.6.2 is enabled
  using double precision
  using view layout = legacy
  will use up to 1 GPU(s) per node
  using 1 OpenMP thread(s) per MPI task
package kokkos
package kokkos newton on neigh half comm device
dimension       3
units           metal
atom_style      atomic
boundary        p p p

# --- Create FCC Cu lattice ---
#lattice         fcc 3.52
#region          box block 0 20 0 20 0 20
#create_box      1 box
#create_atoms    1 box
#mass            1 63.546

read_data       ../../../eos/0.71V/Cu-0.71V.lmp
Reading data file ...
  orthogonal box = (3.7976576 3.7976576 3.7976576) to (66.602342 66.602342 66.602342)
  1 by 1 by 1 MPI processor grid
  reading atoms ...
  32000 atoms
  reading velocities ...
  32000 velocities
  read_data CPU = 0.163 seconds
#change_box     all x scale _scale_ y scale _scale_ z scale _scale_ remap

neighbor        2.0 bin
neigh_modify    delay 0 every 1 check yes

pair_style      eam/alloy
pair_coeff      * * Cu-EAM-Z1622old.eam.alloy Cu

shell           "mkdir -p dumps"

variable	thold equal 5000
variable	itemp equal 2*5000
variable	runNVE equal 50000
variable	tstep equal 0.0005
variable	ph string 5000K-0.71V

timestep        ${tstep}
timestep        0.0005
thermo          200
thermo_style    custom step time temp pe ke pxx pyy pzz press vol density
#thermo_modify	norm yes

dump        	RDUMP all custom 20000 dumps/${ph}-NV-5000K-*.xyz id type x y z
dump        	RDUMP all custom 20000 dumps/5000K-0.71V-NV-5000K-*.xyz id type x y z

#NV  5000K calculation
velocity 		all create ${itemp}  23796
velocity 		all create 10000  23796

fix 			LANG all langevin ${thold} ${thold} $(300.0*dt) 33948
fix 			LANG all langevin 5000 ${thold} $(300.0*dt) 33948
fix 			LANG all langevin 5000 5000 $(300.0*dt) 33948
fix 			LANG all langevin 5000 5000 0.14999999999999999445 33948
fix 			NVE all nve
run  			${runNVE}
run  			50000
Neighbor list info ...
  update: every = 1 steps, delay = 0 steps, check = yes
  max neighbors/atom: 2000, page size: 100000
  master list distance cutoff = 7.859375
  ghost atom cutoff = 7.859375
  binsize = 7.859375, bins = 8 8 8
  1 neighbor lists, perpetual/occasional/extra = 1 0 0
  (1) pair eam/alloy/kk, perpetual
      attributes: half, newton on, kokkos_device
      pair build: half/bin/newton/kk/device
      stencil: half/bin/3d
      bin: kk/device
Per MPI rank memory allocation (min/avg/max) = 12.95 | 12.95 | 12.95 Mbytes
   Step          Time           Temp          PotEng         KinEng          Pxx            Pyy            Pzz           Press          Volume        Density    
         0   0              10000         -69695.626      41361.954      1795361.8      1794309.2      1794348.5      1794673.1      247728.58      13.630544    
       200   0.1            4941.0738     -48642.651      20437.247      1990627.6      1995952.9      1991715.5      1992765.4      247728.58      13.630544    
       400   0.2            4958.0982     -48485.962      20507.663      1994910.4      1997883.8      1993130.6      1995308.2      247728.58      13.630544    
       600   0.3            5007.0819     -48370.88       20710.269      1997484.3      1997294.8      1997071.1      1997283.4      247728.58      13.630544    
       800   0.4            4984.0358     -48211.129      20614.946      1997517.2      1999451.3      1999930        1998966.2      247728.58      13.630544    
      1000   0.5            4998.1982     -48416.056      20673.524      1997308.9      1995564.5      1997712.4      1996861.9      247728.58      13.630544    
      1200   0.6            4975.8052     -48363.409      20580.903      1997177.8      1997188.7      1997128.4      1997165        247728.58      13.630544    
      1400   0.7            5003.1575     -48470.921      20694.037      1997038.2      1997194.3      1994226        1996152.8      247728.58      13.630544    
      1600   0.8            4956.2416     -48384.11       20499.983      1997469.5      1994666.9      1997712.7      1996616.4      247728.58      13.630544    
      1800   0.9            4947.8626     -48347.838      20465.327      1996598.8      1998579.1      1994812.6      1996663.5      247728.58      13.630544    
      2000   1              5022.6249     -48258.666      20774.558      1999166.7      1997688.4      2000491.2      1999115.4      247728.58      13.630544    
      2200   1.1            4980.8226     -48258.992      20601.655      1996053        1999978.6      1999023.2      1998351.6      247728.58      13.630544    
      2400   1.2            4982.5759     -48254.979      20608.907      1998980        1997792.2      1998334.5      1998368.9      247728.58      13.630544    
      2600   1.3            5002.4665     -48341.032      20691.179      1998369.1      1997736.2      1996935.5      1997680.2      247728.58      13.630544    
      2800   1.4            4999.4736     -48509.215      20678.8        1995622.8      1996781.6      1994827.8      1995744        247728.58      13.630544    
      3000   1.5            4976.0091     -48413.891      20581.746      1998390.5      1996102.5      1994649.7      1996380.9      247728.58      13.630544    
      3200   1.6            4982.1294     -48167.141      20607.061      1999652.9      1997433.1      2001740.2      1999608.7      247728.58      13.630544    
      3400   1.7            5030.3624     -48320.149      20806.562      2000765.4      1996489.3      1998984.5      1998746.4      247728.58      13.630544    
      3600   1.8            5013.6312     -48375.822      20737.358      1998987.5      1997470.9      1996056.4      1997504.9      247728.58      13.630544    
      3800   1.9            4983.8967     -48545.995      20614.37       1995881        1995978        1993236.8      1995031.9      247728.58      13.630544    
      4000   2              4977.8882     -48315.591      20589.518      1995605.1      1998749.8      1998781.2      1997712        247728.58      13.630544    
      4200   2.1            4993.8976     -48311.277      20655.736      1999780.4      1996517.5      1998112.3      1998136.7      247728.58      13.630544    
      4400   2.2            5007.8514     -48342.257      20713.452      1997073.5      1998001.1      1998879        1997984.5      247728.58      13.630544    
      4600   2.3            4976.5492     -48443.884      20583.98       1997890.1      1995140.5      1995120.9      1996050.5      247728.58      13.630544    
      4800   2.4            4985.7514     -48362.013      20622.042      1999534.6      1998894.3      1993460.1      1997296.3      247728.58      13.630544    
      5000   2.5            5022.6711     -48309.702      20774.749      2003240        1992533.9      2000859.8      1998877.9      247728.58      13.630544    
      5200   2.6            4970.8219     -48294.563      20560.29       1996464.7      2001278.7      1995650.6      1997798        247728.58      13.630544    
      5400   2.7            5012.2858     -48374.122      20731.793      1999764.5      1995881.1      1997126.7      1997590.8      247728.58      13.630544    
      5600   2.8            5013.1189     -48327.976      20735.239      1995869.9      2003596.8      1995482.5      1998316.4      247728.58      13.630544    
      5800   2.9            5001.3771     -48281.269      20686.673      2001210.9      1997781.6      1996753.6      1998582        247728.58      13.630544    
      6000   3              5011.3669     -48227.292      20727.993      2001948.2      1996636.1      2000317.6      1999634        247728.58      13.630544    
      6200   3.1            5001.468      -48219.208      20687.049      1998280.6      2001343.7      1998185.1      1999269.8      247728.58      13.630544    
      6400   3.2            5055.2316     -48449.531      20909.426      1995452.8      2000040.9      1997456.9      1997650.2      247728.58      13.630544    
      6600   3.3            5051.7176     -48419.794      20894.891      1998757.7      1998193.2      1996406.3      1997785.7      247728.58      13.630544    
      6800   3.4            4987.6709     -48354.815      20629.981      1996647.3      1998141.8      1997620.9      1997470        247728.58      13.630544    
      7000   3.5            5014.6492     -48341.711      20741.569      1998904        1994963.1      2000261.6      1998042.9      247728.58      13.630544    
      7200   3.6            5010.4056     -48366.932      20724.017      1997982.3      1999129.3      1995890.3      1997667.3      247728.58      13.630544    
      7400   3.7            5011.1187     -48295.662      20726.966      2000829.1      1998184.6      1996598.5      1998537.4      247728.58      13.630544    
      7600   3.8            5000.6378     -48238.538      20683.615      1998740.4      1999837.9      1999285.5      1999287.9      247728.58      13.630544    
      7800   3.9            5003.102      -48226.983      20693.807      1996849.1      2001278.1      1999574.2      1999233.8      247728.58      13.630544    
      8000   4              5005.7205     -48347.054      20704.638      1999358.5      1994377.3      1999651.4      1997795.7      247728.58      13.630544    
      8200   4.1            5031.0901     -48283.467      20809.572      1997243.3      1997064.7      2003158.3      1999155.4      247728.58      13.630544    
      8400   4.2            5026.7197     -48278.752      20791.495      2000186.7      2000702        1996682.7      1999190.5      247728.58      13.630544    
      8600   4.3            4992.3047     -48156.458      20649.148      2001623.8      1997027.8      2001244.9      1999965.5      247728.58      13.630544    
      8800   4.4            5018.6295     -48213.121      20758.032      1999929.3      1997033.8      2001946.7      1999636.6      247728.58      13.630544    
      9000   4.5            5034.738      -48329.036      20824.66       1996748.5      1997807.1      2001280.4      1998612        247728.58      13.630544    
      9200   4.6            4988.1436     -48146.047      20631.936      1998764.7      2000246.3      2000866.2      1999959.1      247728.58      13.630544    
      9400   4.7            4989.1991     -48205.347      20636.302      1998224        1997090.3      2002726.6      1999346.9      247728.58      13.630544    
      9600   4.8            4989.1211     -48411.89       20635.98       1996684.9      1998475.3      1994913.6      1996691.3      247728.58      13.630544    
      9800   4.9            4989.7181     -48417.072      20638.449      1997894        1995560.2      1997172.7      1996875.6      247728.58      13.630544    
     10000   5              4977.4061     -48501.889      20587.524      1994259.2      1996125.5      1996032.7      1995472.5      247728.58      13.630544    
     10200   5.1            4963.0227     -48352.527      20528.031      2000418.7      1994700.2      1995381.2      1996833.4      247728.58      13.630544    
     10400   5.2            5010.6508     -48273.299      20725.031      2001885.7      1999510        1994984        1998793.2      247728.58      13.630544    
     10600   5.3            5012.2504     -48435.844      20731.647      1996137.6      2002507.9      1992328.8      1996991.5      247728.58      13.630544    
     10800   5.4            5002.1356     -48406.25       20689.81       1998615        1995762.8      1996389.3      1996922.4      247728.58      13.630544    
     11000   5.5            4946.7561     -48200.176      20460.75       1998865.8      2000478.4      1996448.7      1998597.7      247728.58      13.630544    
     11200   5.6            4991.6841     -48336.099      20646.581      1998372.8      1999384.5      1995259.6      1997672.3      247728.58      13.630544    
     11400   5.7            4986.84       -48485.177      20626.545      1994962.1      2001597.4      1990601        1995720.2      247728.58      13.630544    
     11600   5.8            4996.5434     -48387.363      20666.68       1998541.8      1998238.3      1994649.6      1997143.3      247728.58      13.630544    
     11800   5.9            4948.0989     -48295.459      20466.304      1996229.9      1998964.3      1997231.9      1997475.4      247728.58      13.630544    
     12000   6              4989.2342     -48561.497      20636.448      1994250        1995712.4      1994319.9      1994760.8      247728.58      13.630544    
     12200   6.1            4977.2408     -48348.683      20586.84       1997039.8      1997247        1997812.8      1997366.5      247728.58      13.630544    
     12400   6.2            4987.6981     -48444.106      20630.094      1997018.2      1997397.8      1994268        1996228        247728.58      13.630544    
     12600   6.3            4987.8538     -48362.984      20630.738      2000921        1997547.7      1993480.4      1997316.4      247728.58      13.630544    
     12800   6.4            4972.268      -48438.54       20566.272      1996009.8      1993003.2      1998588.9      1995867.3      247728.58      13.630544    
     13000   6.5            4968.8267     -48429.055      20552.038      1999687.9      1996650.4      1992114.7      1996151        247728.58      13.630544    
     13200   6.6            5016.9051     -48306.097      20750.9        2000253.1      1997418.1      1997537.2      1998402.8      247728.58      13.630544    
     13400   6.7            5002.9553     -48333.996      20693.201      2000703.3      1995958        1997314.1      1997991.8      247728.58      13.630544    
     13600   6.8            5012.6731     -48228.82       20733.395      2001187.7      1998192.4      1999253.8      1999544.6      247728.58      13.630544    
     13800   6.9            4983.6735     -48233.901      20613.447      1999032.3      1996930.6      2000456        1998806.3      247728.58      13.630544    
     14000   7              5012.88       -48520.457      20734.251      1992754.4      1993208.1      2001218.9      1995727.1      247728.58      13.630544    
     14200   7.1            4960.1766     -48416.267      20516.26       1995109.9      1997513.3      1995815.9      1996146.4      247728.58      13.630544    
     14400   7.2            4999.1348     -48472.639      20677.398      1997289        1995476.3      1995217.6      1995994.3      247728.58      13.630544    
     14600   7.3            4977.2295     -48509.566      20586.794      1994707.1      1996310.1      1995351.3      1995456.2      247728.58      13.630544    
     14800   7.4            4975.7227     -48202.515      20580.561      2000946.5      1997014.6      1999884.4      1999281.8      247728.58      13.630544    
     15000   7.5            4981.989      -48216.374      20606.48       1998700.3      1998087.4      2001147.2      1999311.6      247728.58      13.630544    
     15200   7.6            4989.8085     -48246.737      20638.823      1996237.7      1999540.7      2000855.8      1998878.1      247728.58      13.630544    
     15400   7.7            5048.6987     -48456.875      20882.404      1997224.2      1995708.7      1998435.6      1997122.8      247728.58      13.630544    
     15600   7.8            4985.5675     -48288.487      20621.281      2003871.8      1997849.2      1992149.6      1997956.9      247728.58      13.630544    
     15800   7.9            4973.3956     -48331.608      20570.936      1999260.1      1995894.7      1997456.1      1997537        247728.58      13.630544    
     16000   8              4986.6822     -48399.765      20625.892      1995608.8      2000147.8      1995090.5      1996949.1      247728.58      13.630544    
     16200   8.1            4976.1433     -48315.217      20582.301      1995876.1      2000565.3      1997064.7      1997835.4      247728.58      13.630544    
     16400   8.2            5004.9297     -48225.663      20701.367      1998375.7      1999385.6      2000026.9      1999262.7      247728.58      13.630544    
     16600   8.3            5015.3115     -48222.278      20744.308      1999794.7      1997152.9      2001569.5      1999505.7      247728.58      13.630544    
     16800   8.4            4996.0144     -48160.362      20664.492      2000340.3      1999161.5      2000042        1999847.9      247728.58      13.630544    
     17000   8.5            5030.2764     -48193.679      20806.206      1998587.8      2000146.2      2001274.9      2000002.9      247728.58      13.630544    
     17200   8.6            5037.3503     -48136.61       20835.465      2003726.9      1999626.8      1999912        2001088.5      247728.58      13.630544    
     17400   8.7            5014.3312     -48212.515      20740.254      2001073.1      1993021.2      2004771.1      1999621.8      247728.58      13.630544    
     17600   8.8            5010.2671     -48157.057      20723.444      2000706.1      2002338        1997799.4      2000281.2      247728.58      13.630544    
     17800   8.9            5034.053      -48166.65       20821.827      1998977.9      2000830.1      2002052.9      2000620.3      247728.58      13.630544    
     18000   9              5009.4457     -48185.897      20720.046      1998700.6      2001489.7      1999548.9      1999913.1      247728.58      13.630544    
     18200   9.1            4965.8439     -48327.384      20539.701      1997118.5      1997038        1997885        1997347.2      247728.58      13.630544    
     18400   9.2            5002.0621     -48305.431      20689.506      1999565.3      1998716.7      1996276.6      1998186.2      247728.58      13.630544    
     18600   9.3            5020.5127     -48419.329      20765.821      1999153.3      1997408.9      1994911.2      1997157.8      247728.58      13.630544    
     18800   9.4            5011.0315     -48414.666      20726.605      1998793        1997411.8      1995226.1      1997143.7      247728.58      13.630544    
     19000   9.5            4994.6269     -48331.35       20658.753      2001409.2      1997586.6      1994562        1997852.6      247728.58      13.630544    
     19200   9.6            4988.9671     -48307.193      20635.343      1999895.5      2000376.9      1993757        1998009.8      247728.58      13.630544    
     19400   9.7            5007.3597     -48098.62       20711.418      2001726.6      2002371.2      1998586        2000894.6      247728.58      13.630544    
     19600   9.8            5004.5733     -48112.867      20699.893      1999736.2      2001375.4      2000456.3      2000522.6      247728.58      13.630544    
     19800   9.9            4999.0627     -48103.234      20677.1        2000336.2      2002294.5      1999295.9      2000642.2      247728.58      13.630544    
     20000   10             5023.1244     -48303.892      20776.624      1999297.7      1998371.8      1998450.3      1998706.6      247728.58      13.630544    
     20200   10.1           5014.6343     -48425.247      20741.507      1996701.8      1996430.4      1997750        1996960.7      247728.58      13.630544    
     20400   10.2           5020.1349     -48645.772      20764.259      1993353        1994086.1      1995094.9      1994178        247728.58      13.630544    
     20600   10.3           4997.1645     -48145.604      20669.249      1999155        2001930        1999103.1      2000062.7      247728.58      13.630544    
     20800   10.4           5030.6024     -48296.948      20807.554      1999932.3      2001589.9      1995003.7      1998842        247728.58      13.630544    
     21000   10.5           4978.8039     -48488.058      20593.306      1997053.1      1994938.3      1994208.5      1995400        247728.58      13.630544    
     21200   10.6           4979.9257     -48528.407      20597.946      1997325.9      1995389        1992630.2      1995115        247728.58      13.630544    
     21400   10.7           4971.8774     -48207.435      20564.656      1996962        2000833.3      1998694.7      1998830        247728.58      13.630544    
     21600   10.8           5047.4465     -48644.715      20877.225      1993380.8      1998249.8      1992925.5      1994852.1      247728.58      13.630544    
     21800   10.9           4982.4113     -48410.725      20608.227      1995440.1      1997716.2      1997167.3      1996774.5      247728.58      13.630544    
     22000   11             4968.4776     -48289.637      20550.594      1997900.4      1996156.4      2000088.4      1998048.4      247728.58      13.630544    
     22200   11.1           4983.9682     -48357.631      20614.666      1998308.3      1995765        1998517.4      1997530.2      247728.58      13.630544    
     22400   11.2           4968.6263     -48388.088      20551.209      1996749        1995551.4      1997770.1      1996690.2      247728.58      13.630544    
     22600   11.3           4981.794      -48451.512      20605.673      1995021        1996207.6      1997432.9      1996220.5      247728.58      13.630544    
     22800   11.4           4958.87       -48334.687      20510.855      1995697.5      1997914.7      1997701.6      1997104.6      247728.58      13.630544    
     23000   11.5           4976.226      -48385.691      20582.643      1997115.2      1996261.1      1997456        1996944.1      247728.58      13.630544    
     23200   11.6           5020.9014     -48394.515      20767.429      1995858.2      2001317.1      1994593.1      1997256.1      247728.58      13.630544    
     23400   11.7           4994.057      -48412.113      20656.396      2000579.7      1994959.3      1994721.6      1996753.5      247728.58      13.630544    
     23600   11.8           4987.5907     -48272.722      20629.65       1999949.9      1998137.3      1997618.2      1998568.5      247728.58      13.630544    
     23800   11.9           4968.1336     -48161.39       20549.171      2002773.8      1997769.6      1997964.3      1999502.5      247728.58      13.630544    
     24000   12             5002.5526     -48349.965      20691.535      1999695.1      1997621.1      1995158.1      1997491.4      247728.58      13.630544    
     24200   12.1           4966.6932     -48378.384      20543.214      1995652.3      1999196.6      1995522.4      1996790.4      247728.58      13.630544    
     24400   12.2           5003.0852     -48263.672      20693.738      2001655.2      1998478        1996383.7      1998838.9      247728.58      13.630544    
     24600   12.3           4996.0816     -48245.636      20664.77       1999188.4      1999216.1      1998923.7      1999109.4      247728.58      13.630544    
     24800   12.4           4966.0161     -48223.075      20540.413      1999246.1      1998509.9      1998044.4      1998600.1      247728.58      13.630544    
     25000   12.5           5025.0673     -48450.041      20784.66       1996748        1996087.8      1997556        1996797.3      247728.58      13.630544    
     25200   12.6           4999.3263     -48386.134      20678.19       1996392.8      1996166.9      1999387.4      1997315.7      247728.58      13.630544    
     25400   12.7           4983.5008     -48225.545      20612.733      1995961.3      1999045.1      2001687        1998897.8      247728.58      13.630544    
     25600   12.8           4992.9075     -48322.764      20651.641      1999619.3      1996431.5      1998504        1998184.9      247728.58      13.630544    
     25800   12.9           4993.9366     -48266.936      20655.897      2002702.3      1994832.2      1998028        1998520.9      247728.58      13.630544    
     26000   13             5000.2394     -48287.898      20681.967      1998331.5      1998613.8      1998191.1      1998378.8      247728.58      13.630544    
     26200   13.1           5009.4428     -48300.861      20720.034      1996485.2      1998595.9      2000524.7      1998535.3      247728.58      13.630544    
     26400   13.2           5009.1297     -48268.927      20718.739      1998185.4      2001355        1997305.2      1998948.5      247728.58      13.630544    
     26600   13.3           4980.7217     -48347.04       20601.238      1995056.4      1998931.7      1998627.2      1997538.4      247728.58      13.630544    
     26800   13.4           5060.9507     -48421.583      20933.081      1998311.1      1997027.7      1997960.9      1997766.6      247728.58      13.630544    
     27000   13.5           5009.938      -48272.43       20722.083      2000583.3      1997164.4      1999153.7      1998967.1      247728.58      13.630544    
     27200   13.6           5000.6549     -48182.826      20683.686      2004331        1998469.4      1996029        1999609.8      247728.58      13.630544    
     27400   13.7           5011.9218     -48059.203      20730.288      2005150        1998795.1      2000881.9      2001609        247728.58      13.630544    
     27600   13.8           4989.7312     -48106.025      20638.503      2000615.2      1999821.2      2001090.5      2000509        247728.58      13.630544    
     27800   13.9           5000.7717     -48218.243      20684.169      2001715.5      1996763.9      1999671.6      1999383.7      247728.58      13.630544    
     28000   14             4966.3785     -48152.752      20541.912      1996795.9      2000087.3      2001813.1      1999565.4      247728.58      13.630544    
     28200   14.1           4985.8564     -48268.409      20622.476      1996926.7      1996848.3      2000725.5      1998166.8      247728.58      13.630544    
     28400   14.2           4988.4672     -48420.056      20633.275      1994694.1      1995880.6      1998713.4      1996429.4      247728.58      13.630544    
     28600   14.3           4987.9784     -48251.865      20631.253      1998941        1995763.7      2001000.9      1998568.5      247728.58      13.630544    
     28800   14.4           4980.6176     -48242.836      20600.807      2000353.5      1999278.9      1996424.4      1998685.6      247728.58      13.630544    
     29000   14.5           4968.6763     -48261.753      20551.416      2000132.4      2001044.8      1992924.8      1998034        247728.58      13.630544    
     29200   14.6           5004.8832     -48352.757      20701.175      1997000.1      2000599.4      1995518.4      1997706        247728.58      13.630544    
     29400   14.7           5001.0412     -48281.866      20685.283      1996153.3      1998799.2      1999985.2      1998312.6      247728.58      13.630544    
     29600   14.8           4965.528      -48242.15       20538.394      1998627.5      1997273.2      1998870.1      1998256.9      247728.58      13.630544    
     29800   14.9           4955.9361     -48247.695      20498.72       1997695.1      1996619.7      2000121.1      1998145.3      247728.58      13.630544    
     30000   15             4967.3194     -48282.352      20545.804      2000115.7      1996735.5      1997059        1997970.1      247728.58      13.630544    
     30200   15.1           4980.884      -48345.458      20601.909      1999209.8      1995268.6      1997764.5      1997414.3      247728.58      13.630544    
     30400   15.2           4976.6099     -48310.781      20584.231      1998677.8      1996525.6      1997923.2      1997708.8      247728.58      13.630544    
     30600   15.3           5006.1872     -48416.39       20706.568      1999942.4      1995324.6      1996375.8      1997214.2      247728.58      13.630544    
     30800   15.4           4996.9397     -48203.316      20668.319      2001827.9      1995635.5      2000636.3      1999366.6      247728.58      13.630544    
     31000   15.5           4997.8683     -48283.588      20672.16       2000356.2      1998307.9      1996947.4      1998537.2      247728.58      13.630544    
     31200   15.6           4952.3801     -48180.269      20484.012      1996837.2      2000337.9      1999155.2      1998776.8      247728.58      13.630544    
     31400   15.7           4977.5501     -48097.62       20588.12       2001828.3      2002333.5      1996906.6      2000356.2      247728.58      13.630544    
     31600   15.8           5002.7153     -48328.034      20692.208      1999463.8      1998211.9      1997221.2      1998298.9      247728.58      13.630544    
     31800   15.9           5032.6501     -48342.892      20816.024      2002436.9      1994455.1      1998418        1998436.7      247728.58      13.630544    
     32000   16             5022.5073     -48242.836      20774.072      2000640.6      1999050        1999006.2      1999565.6      247728.58      13.630544    
     32200   16.1           4996.4056     -48267.099      20666.11       2000928.7      1997420.8      1997777.5      1998709        247728.58      13.630544    
     32400   16.2           4973.971      -48329.627      20573.316      1996798.6      1994974.2      2000080.9      1997284.5      247728.58      13.630544    
     32600   16.3           5023.5135     -48355.068      20778.233      1997300.3      1998304.5      1998624.9      1998076.6      247728.58      13.630544    
     32800   16.4           4970.5943     -48105.588      20559.349      1999931.2      1999403.3      2001619        2000317.8      247728.58      13.630544    
     33000   16.5           5049.1027     -48403.49       20884.075      2000361.6      1996373        1997219.9      1997984.9      247728.58      13.630544    
     33200   16.6           4969.3874     -48265.029      20554.357      2000099.7      1996466.4      1998155.5      1998240.5      247728.58      13.630544    
     33400   16.7           5009.6324     -48322.16       20720.818      2002538.6      1995827.9      1995619.4      1997995.3      247728.58      13.630544    
     33600   16.8           4984.4789     -48232.37       20616.779      1998351.9      1997726.7      2000427.1      1998835.2      247728.58      13.630544    
     33800   16.9           4977.0045     -48239.23       20585.863      1997150.3      1999806.9      1998326.9      1998428        247728.58      13.630544    
     34000   17             4960.6317     -48288.317      20518.142      1995503.9      1997664.2      1999531        1997566.4      247728.58      13.630544    
     34200   17.1           5005.0145     -48405.044      20701.718      2001826.6      1995440.9      1993757.9      1997008.5      247728.58      13.630544    
     34400   17.2           5012.1257     -48194.412      20731.131      2002489.5      2001332.7      1995250        1999690.7      247728.58      13.630544    
     34600   17.3           4998.15       -48340.95       20673.325      1998489.3      1997451.6      1997288.4      1997743.1      247728.58      13.630544    
     34800   17.4           5002.7464     -48508.321      20692.337      1995011.3      1997661.1      1994662.5      1995778.3      247728.58      13.630544    
     35000   17.5           4984.5696     -48318.279      20617.154      1995843.7      1999329.9      1998187.6      1997787.1      247728.58      13.630544    
     35200   17.6           4990.7096     -48317.001      20642.55       1997675.8      1998809.3      1997170.4      1997885.2      247728.58      13.630544    
     35400   17.7           4999.1469     -48481.801      20677.448      1997601.4      1995886.7      1995293.2      1996260.4      247728.58      13.630544    
     35600   17.8           4958.2603     -48203.035      20508.333      1997031        1999569.4      1999751.6      1998784        247728.58      13.630544    
     35800   17.9           5003.0374     -48137.716      20693.54       1999601.5      2000565.3      2001463.2      2000543.3      247728.58      13.630544    
     36000   18             5035.3987     -48314.09       20827.393      1999322        1999349.7      1997731.3      1998801        247728.58      13.630544    
     36200   18.1           4983.1389     -48344.956      20611.236      1997217        1998335.7      1996710.3      1997421        247728.58      13.630544    
     36400   18.2           5014.0364     -48386.576      20739.034      1997140        1995992        1998772        1997301.4      247728.58      13.630544    
     36600   18.3           4999.2023     -48315.427      20677.678      1997613.9      1998136.6      1998413.2      1998054.6      247728.58      13.630544    
     36800   18.4           4975.1475     -48236.21       20578.182      1999629.1      1996826.8      1999209        1998555        247728.58      13.630544    
     37000   18.5           4988.1882     -48211.171      20632.121      2002159.1      1997363.5      1997865.4      1999129.3      247728.58      13.630544    
     37200   18.6           5052.8385     -48203.966      20899.527      1998956.5      2002369.5      1999889.9      2000405.3      247728.58      13.630544    
     37400   18.7           4990.6798     -48123.676      20642.427      1995461.3      2000577.3      2005020.3      2000353        247728.58      13.630544    
     37600   18.8           5017.2699     -48229.427      20752.409      1998480.6      1999085.9      2001446.7      1999671.1      247728.58      13.630544    
     37800   18.9           5003.71       -48369.873      20696.322      1998172.3      1996887.8      1997069.7      1997376.6      247728.58      13.630544    
     38000   19             5028.1452     -48280.896      20797.391      2000913.8      1998929.7      1997089.4      1998977.6      247728.58      13.630544    
     38200   19.1           5026.9613     -48274.471      20792.494      2001184.9      1997605.5      1998088.2      1998959.6      247728.58      13.630544    
     38400   19.2           4993.0659     -48264.345      20652.296      1996006        2001294.9      1998687.6      1998662.8      247728.58      13.630544    
     38600   19.3           4996.9798     -48268.028      20668.485      1996903.9      1999719.4      1999252.8      1998625.4      247728.58      13.630544    
     38800   19.4           4995.1349     -48243.248      20660.854      1999638.1      1998295.3      1999307.1      1999080.2      247728.58      13.630544    
     39000   19.5           4974.2017     -48192.526      20574.27       1998184.1      1998231.7      2000800.4      1999072.1      247728.58      13.630544    
     39200   19.6           4986.4242     -48271.521      20624.825      1996297.5      1998814.1      1999732        1998281.2      247728.58      13.630544    
     39400   19.7           5001.9836     -48262.346      20689.182      1998464.1      2000735        1997312.1      1998837.1      247728.58      13.630544    
     39600   19.8           4962.0592     -48297.086      20524.047      1998561.4      1995735.6      1999079.7      1997792.2      247728.58      13.630544    
     39800   19.9           5001.3762     -48384.204      20686.669      1998340.8      1995967.3      1997333.6      1997213.9      247728.58      13.630544    
     40000   20             4991.9841     -48442.663      20647.822      1997566.8      1999359.1      1992697.6      1996541.2      247728.58      13.630544    
     40200   20.1           4970.0524     -48300.586      20557.108      1997860.1      1998322.5      1997034.1      1997738.9      247728.58      13.630544    
     40400   20.2           4988.8881     -48312.555      20635.016      2001770.9      1995078.5      1997793        1998214.1      247728.58      13.630544    
     40600   20.3           4957.8668     -48292.833      20506.706      1998218.8      1997468.7      1997047.5      1997578.3      247728.58      13.630544    
     40800   20.4           4994.6458     -48356.042      20658.831      2000386.6      1998574.3      1993659.7      1997540.2      247728.58      13.630544    
     41000   20.5           4998.3156     -48341.326      20674.01       1997885.7      1998706.2      1996262.5      1997618.1      247728.58      13.630544    
     41200   20.6           5004.4698     -48158.648      20699.465      1999490        2001230.2      1999585.8      2000102        247728.58      13.630544    
     41400   20.7           5022.0476     -47994.096      20772.17       2003570.3      2002470.7      2001689.7      2002576.9      247728.58      13.630544    
     41600   20.8           5011.0166     -48250.302      20726.544      1996295.5      1999164.9      2001070.8      1998843.7      247728.58      13.630544    
     41800   20.9           5000.0389     -48251.864      20681.138      1999473.8      1998291.1      1998077.1      1998614        247728.58      13.630544    
     42000   21             4996.3746     -48258.662      20665.982      2000674.9      1999204.2      1996891.1      1998923.4      247728.58      13.630544    
     42200   21.1           5010.7264     -48196.625      20725.343      2000311.2      1996409.4      2002367.5      1999696        247728.58      13.630544    
     42400   21.2           4966.6486     -48230.877      20543.029      1999661.1      1997550.3      1998158.6      1998456.6      247728.58      13.630544    
     42600   21.3           4961.8687     -48125.234      20523.258      1999495.3      1998650        2001771.8      1999972.4      247728.58      13.630544    
     42800   21.4           4985.5454     -48313.88       20621.19       1994660.3      2000476.4      1998177.3      1997771.3      247728.58      13.630544    
     43000   21.5           4986.8214     -48319.526      20626.468      1998556.6      1997484.8      1997148.6      1997730        247728.58      13.630544    
     43200   21.6           4989.4904     -48288.248      20637.507      1999055        1998215.5      1997180.3      1998150.3      247728.58      13.630544    
     43400   21.7           5006.774      -48299.983      20708.996      1999276.1      2000541.9      1995431.7      1998416.6      247728.58      13.630544    
     43600   21.8           5007.4106     -48371.973      20711.628      1995715.9      1997863        1998313.7      1997297.6      247728.58      13.630544    
     43800   21.9           4993.4919     -48230.296      20654.058      1994774.3      2001437.1      2000599.5      1998936.9      247728.58      13.630544    
     44000   22             5007.4417     -48325.043      20711.757      1995244.4      1998597.5      2000352.5      1998064.8      247728.58      13.630544    
     44200   22.1           4973.3808     -48127.749      20570.875      1999645        1999444.3      2000912.2      2000000.5      247728.58      13.630544    
     44400   22.2           4978.7507     -48320.827      20593.086      1997185.3      2002330.4      1993821.3      1997779        247728.58      13.630544    
     44600   22.3           5008.6568     -48363.066      20716.783      1998985.6      1997400.6      1996594.8      1997660.3      247728.58      13.630544    
     44800   22.4           5032.5726     -48181.182      20815.703      1999825.4      2001064.3      2000400.3      2000430        247728.58      13.630544    
     45000   22.5           5007.2031     -48246.18       20710.77       1994550.1      2001168.2      2000988.5      1998902.3      247728.58      13.630544    
     45200   22.6           5026.8039     -48213.077      20791.843      2002316        1997776.7      1999723.6      1999938.7      247728.58      13.630544    
     45400   22.7           5000.8211     -48321.971      20684.373      1998682.8      1999016.8      1996110        1997936.5      247728.58      13.630544    
     45600   22.8           4981.5258     -48324.707      20604.564      1998851.5      1997028.7      1997512.5      1997797.5      247728.58      13.630544    
     45800   22.9           5016.2276     -48398.815      20748.097      1996611.1      1997116.9      1998517.8      1997415.3      247728.58      13.630544    
     46000   23             5001.1688     -48114.372      20685.811      2004833.9      1997225.9      1999255.9      2000438.6      247728.58      13.630544    
     46200   23.1           4984.445      -48273.923      20616.638      1999218.5      1998449.6      1997143.4      1998270.5      247728.58      13.630544    
     46400   23.2           4999.1365     -48181.056      20677.405      1999040.1      2001982.7      1997638.8      1999553.9      247728.58      13.630544    
     46600   23.3           4987.5615     -48191.855      20629.529      1998610.7      2000156.5      1999193.8      1999320.3      247728.58      13.630544    
     46800   23.4           5009.1548     -48348.314      20718.843      1995721.6      1997441.1      2000264.8      1997809.2      247728.58      13.630544    
     47000   23.5           4994.234      -48276.14       20657.128      1998078.4      1995604.8      2001342        1998341.7      247728.58      13.630544    
     47200   23.6           5002.6182     -48344.853      20691.806      1995748.3      1999095.5      1998629.5      1997824.4      247728.58      13.630544    
     47400   23.7           4992.5297     -48355.328      20650.078      1999755.3      1996190.2      1996969.2      1997638.2      247728.58      13.630544    
     47600   23.8           4997.0724     -48281.556      20668.868      2001511.1      1998387.1      1996174.4      1998690.9      247728.58      13.630544    
     47800   23.9           5009.0972     -48087.794      20718.605      2004888.5      1999997.5      1998211.8      2001032.6      247728.58      13.630544    
     48000   24             5031.3959     -48288.398      20810.837      2002565        1998642.7      1995394.1      1998867.3      247728.58      13.630544    
     48200   24.1           5000.8257     -48232.499      20684.392      2001760.2      1998557.5      1997294.4      1999204        247728.58      13.630544    
     48400   24.2           5019.4671     -48311.385      20761.497      1997424.8      1997806.6      2000045.8      1998425.7      247728.58      13.630544    
     48600   24.3           5020.6848     -48314.681      20766.533      1998727.3      1994261.5      2003443.6      1998810.8      247728.58      13.630544    
     48800   24.4           5041.9075     -48384.44       20854.314      1995002.7      1997156.5      2001301        1997820.1      247728.58      13.630544    
     49000   24.5           5002.42       -48275.759      20690.986      1996978.8      1998241.5      2000564.9      1998595.1      247728.58      13.630544    
     49200   24.6           5005.2171     -48226.073      20702.556      1998695.8      1994740.7      2005000.1      1999478.9      247728.58      13.630544    
     49400   24.7           5001.3899     -48250.06       20686.726      1995396.9      1999823.3      2001939.8      1999053.3      247728.58      13.630544    
     49600   24.8           4984.5957     -48158.194      20617.262      1997338.5      1998661.9      2003516.5      1999839        247728.58      13.630544    
     49800   24.9           4991.1154     -48171.247      20644.228      1998901.4      2000753.6      1999718.9      1999791.3      247728.58      13.630544    
     50000   25             5007.0019     -48303.381      20709.938      1997528.4      1999465.8      1997774.8      1998256.3      247728.58      13.630544    
Loop time of 70.6432 on 1 procs for 50000 steps with 32000 atoms

Performance: 30.576 ns/day, 0.785 hours/ns, 707.782 timesteps/s, 22.649 Matom-step/s
99.6% CPU use with 1 MPI tasks x 1 OpenMP threads

MPI task timing breakdown:
Section |  min time  |  avg time  |  max time  |%varavg| %total
---------------------------------------------------------------
Pair    | 39.971     | 39.971     | 39.971     |   0.0 | 56.58
Neigh   | 0.38982    | 0.38982    | 0.38982    |   0.0 |  0.55
Comm    | 25.897     | 25.897     | 25.897     |   0.0 | 36.66
Output  | 0.119      | 0.119      | 0.119      |   0.0 |  0.17
Modify  | 2.201      | 2.201      | 2.201      |   0.0 |  3.12
Other   |            | 2.066      |            |       |  2.92

Nlocal:          32000 ave       32000 max       32000 min
Histogram: 1 0 0 0 0 0 0 0 0 0
Nghost:          30546 ave       30546 max       30546 min
Histogram: 1 0 0 0 0 0 0 0 0 0
Neighs:    4.19112e+06 ave 4.19112e+06 max 4.19112e+06 min
Histogram: 1 0 0 0 0 0 0 0 0 0

Total # of neighbors = 4191118
Ave neighs/atom = 130.97244
Neighbor list builds = 828
Dangerous builds = 0
Total wall time: 0:01:13
