LAMMPS (10 Sep 2025)
KOKKOS mode with Kokkos version 4.6.2 is enabled
  using double precision
  using view layout = legacy
  will use up to 1 GPU(s) per node
  using 1 OpenMP thread(s) per MPI task
package kokkos
package kokkos newton on neigh half comm device
dimension       3
units           metal
atom_style      atomic
boundary        p p p

# --- Create FCC Cu lattice ---
#lattice         fcc 3.52
#region          box block 0 20 0 20 0 20
#create_box      1 box
#create_atoms    1 box
#mass            1 63.546

read_data       ../../../eos/0.70V/Cu-0.70V.lmp
Reading data file ...
  orthogonal box = (3.9457792 3.9457792 3.9457792) to (66.454221 66.454221 66.454221)
  1 by 1 by 1 MPI processor grid
  reading atoms ...
  32000 atoms
  reading velocities ...
  32000 velocities
  read_data CPU = 0.150 seconds
#change_box     all x scale _scale_ y scale _scale_ z scale _scale_ remap

neighbor        2.0 bin
neigh_modify    delay 0 every 1 check yes

pair_style      eam/alloy
pair_coeff      * * Cu-EAM-Z1622old.eam.alloy Cu

shell           "mkdir -p dumps"

variable	thold equal 5000
variable	itemp equal 2*5000
variable	runNVE equal 50000
variable	tstep equal 0.0005
variable	ph string 5000K-0.70V

timestep        ${tstep}
timestep        0.0005
thermo          200
thermo_style    custom step time temp pe ke pxx pyy pzz press vol density
#thermo_modify	norm yes

dump        	RDUMP all custom 20000 dumps/${ph}-NV-5000K-*.xyz id type x y z
dump        	RDUMP all custom 20000 dumps/5000K-0.70V-NV-5000K-*.xyz id type x y z

#NV  5000K calculation
velocity 		all create ${itemp}  23796
velocity 		all create 10000  23796

fix 			LANG all langevin ${thold} ${thold} $(300.0*dt) 33948
fix 			LANG all langevin 5000 ${thold} $(300.0*dt) 33948
fix 			LANG all langevin 5000 5000 $(300.0*dt) 33948
fix 			LANG all langevin 5000 5000 0.14999999999999999445 33948
fix 			NVE all nve
run  			${runNVE}
run  			50000
Neighbor list info ...
  update: every = 1 steps, delay = 0 steps, check = yes
  max neighbors/atom: 2000, page size: 100000
  master list distance cutoff = 7.859375
  ghost atom cutoff = 7.859375
  binsize = 7.859375, bins = 8 8 8
  1 neighbor lists, perpetual/occasional/extra = 1 0 0
  (1) pair eam/alloy/kk, perpetual
      attributes: half, newton on, kokkos_device
      pair build: half/bin/newton/kk/device
      stencil: half/bin/3d
      bin: kk/device
Per MPI rank memory allocation (min/avg/max) = 12.95 | 12.95 | 12.95 Mbytes
   Step          Time           Temp          PotEng         KinEng          Pxx            Pyy            Pzz           Press          Volume        Density    
         0   0              10000         -66052.282      41361.954      1911611.1      1910543.5      1910583.3      1910912.6      244239.56      13.825259    
       200   0.1            4962.9484     -45102.622      20527.724      2112532.5      2118215        2115229.8      2115325.8      244239.56      13.825259    
       400   0.2            4926.395      -44731.422      20376.532      2119439.6      2119965.3      2119382        2119595.6      244239.56      13.825259    
       600   0.3            4981.9555     -44763.863      20606.341      2120672.9      2122923.9      2116786.5      2120127.8      244239.56      13.825259    
       800   0.4            5010.5811     -44769.462      20724.743      2120508        2118126.8      2123334.1      2120656.3      244239.56      13.825259    
      1000   0.5            4983.2257     -44703.439      20611.595      2120971.3      2119974.2      2122177.4      2121040.9      244239.56      13.825259    
      1200   0.6            4988.0236     -44794.762      20631.44       2121106.6      2117988.3      2120545.9      2119880.2      244239.56      13.825259    
      1400   0.7            4992.8982     -44950.663      20651.603      2120037.9      2117302.9      2116794.4      2118045.1      244239.56      13.825259    
      1600   0.8            4982.8412     -44925.319      20610.005      2118269.8      2114563.7      2120898.4      2117910.7      244239.56      13.825259    
      1800   0.9            4972.7493     -44839.793      20568.263      2115908.4      2118931.2      2122234.3      2119024.6      244239.56      13.825259    
      2000   1              5022.8408     -44825.775      20775.451      2118892.5      2117946.7      2123640.8      2120160        244239.56      13.825259    
      2200   1.1            5027.6527     -44920.179      20795.354      2116915.6      2118468.5      2122319.3      2119234.5      244239.56      13.825259    
      2400   1.2            5050.4885     -44780.311      20889.807      2120079.8      2122117.6      2121062.9      2121086.8      244239.56      13.825259    
      2600   1.3            5001.6886     -44738.2        20687.961      2120933.4      2120288.5      2120824        2120681.9      244239.56      13.825259    
      2800   1.4            5025.5593     -44748.13       20786.695      2125799.6      2118749.3      2117992.9      2120847.2      244239.56      13.825259    
      3000   1.5            4984.5539     -44555.655      20617.089      2123401.3      2122503        2123712.4      2123205.6      244239.56      13.825259    
      3200   1.6            5009.5989     -44695.283      20720.68       2120459.3      2121050.6      2123230        2121580        244239.56      13.825259    
      3400   1.7            5001.193      -44844.395      20685.911      2116378.1      2123267.7      2118953.8      2119533.2      244239.56      13.825259    
      3600   1.8            4976.1923     -44763.922      20582.504      2119912        2122410.7      2118380        2120234.2      244239.56      13.825259    
      3800   1.9            5015.0227     -44762.358      20743.114      2123584.1      2121497.8      2117807.7      2120963.2      244239.56      13.825259    
      4000   2              5011.7789     -44896.808      20729.697      2121064        2117477.1      2118635.3      2119058.8      244239.56      13.825259    
      4200   2.1            4959.8784     -44769.159      20515.026      2120711.7      2119176.6      2119482.5      2119790.2      244239.56      13.825259    
      4400   2.2            5004.5467     -44927.227      20699.783      2121051.5      2120246.3      2114348.4      2118548.7      244239.56      13.825259    
      4600   2.3            4952.5195     -44872.528      20484.588      2117726.9      2117974.5      2119066.2      2118255.9      244239.56      13.825259    
      4800   2.4            4976.4181     -45022.936      20583.438      2115771.2      2116515.2      2118430.4      2116905.6      244239.56      13.825259    
      5000   2.5            5014.2978     -44743.378      20740.116      2121268        2121662        2120417.4      2121115.8      244239.56      13.825259    
      5200   2.6            5007.3522     -44608.324      20711.387      2124987.6      2120086.2      2122762.8      2122612.2      244239.56      13.825259    
      5400   2.7            5033.9689     -44774.922      20821.479      2121596.9      2121382.3      2120302.7      2121094        244239.56      13.825259    
      5600   2.8            4991.9649     -44684.652      20647.742      2120590.7      2118203.4      2125416.1      2121403.4      244239.56      13.825259    
      5800   2.9            5057.6234     -44838.071      20919.318      2121428        2123618.2      2117120.1      2120722.1      244239.56      13.825259    
      6000   3              4992.6168     -44559.712      20650.439      2126005.7      2123500.4      2120082.3      2123196.1      244239.56      13.825259    
      6200   3.1            5029.4737     -44760.887      20802.886      2119520.3      2124714.6      2118399.2      2120878        244239.56      13.825259    
      6400   3.2            5033.5487     -44599.684      20819.741      2123942.8      2125918.8      2119977.3      2123279.7      244239.56      13.825259    
      6600   3.3            5058.1642     -44830.566      20921.555      2118867.6      2122424.9      2121251.1      2120847.8      244239.56      13.825259    
      6800   3.4            5045.3429     -44891.894      20868.524      2120368.7      2117747.6      2121059.2      2119725.2      244239.56      13.825259    
      7000   3.5            5019.6257     -44800.51       20762.153      2120862.1      2119657.5      2120473.8      2120331.1      244239.56      13.825259    
      7200   3.6            5019.6822     -44791.939      20762.386      2120756.8      2122632.2      2118527.9      2120639        244239.56      13.825259    
      7400   3.7            5000.0824     -44912.974      20681.318      2115243.5      2117392        2123007.5      2118547.7      244239.56      13.825259    
      7600   3.8            4969.8663     -44677.083      20556.338      2121330        2121122.6      2121258.2      2121236.9      244239.56      13.825259    
      7800   3.9            5013.841      -44752.034      20738.226      2122842.7      2119329.8      2120306.3      2120826.3      244239.56      13.825259    
      8000   4              5018.5492     -44837.225      20757.7        2118822.1      2120506.8      2120815.1      2120048        244239.56      13.825259    
      8200   4.1            4992.572      -44743.186      20650.253      2117292.2      2120330.2      2123983.3      2120535.2      244239.56      13.825259    
      8400   4.2            4998.468      -44615.716      20674.64       2125344.1      2118663.7      2123135.5      2122381.1      244239.56      13.825259    
      8600   4.3            5013.7019     -44716.292      20737.651      2117902.3      2121945.2      2124085.3      2121310.9      244239.56      13.825259    
      8800   4.4            4977.0093     -44805.58       20585.883      2116200.4      2120775.8      2121953.6      2119643.3      244239.56      13.825259    
      9000   4.5            4986.3043     -44758.559      20624.329      2121800.9      2117216.7      2121871.1      2120296.3      244239.56      13.825259    
      9200   4.6            4970.5346     -44771.157      20559.102      2116351.1      2121616.8      2121190.1      2119719.3      244239.56      13.825259    
      9400   4.7            4987.4313     -44824.89       20628.99       2116899        2124729.2      2117031.7      2119553.3      244239.56      13.825259    
      9600   4.8            4995.3247     -44923.243      20661.639      2119770        2118557.8      2117011.6      2118446.4      244239.56      13.825259    
      9800   4.9            4979.3029     -44838.538      20595.37       2119874.9      2119077.3      2118827.8      2119260        244239.56      13.825259    
     10000   5              4971.8716     -44690.461      20564.632      2125376.7      2120393.2      2117444.5      2121071.5      244239.56      13.825259    
     10200   5.1            4965.4531     -44642.097      20538.084      2120744        2123317.6      2120313.1      2121458.2      244239.56      13.825259    
     10400   5.2            4959.5523     -44622.224      20513.677      2123559.4      2121400.6      2119676        2121545.3      244239.56      13.825259    
     10600   5.3            4961.7095     -44695.098      20522.6        2122077.7      2120417.5      2119853.8      2120783        244239.56      13.825259    
     10800   5.4            5004.0757     -44727.227      20697.835      2119090.8      2123469.8      2120962        2121174.2      244239.56      13.825259    
     11000   5.5            4984.3646     -44754.081      20616.306      2121025.2      2121078        2119058.4      2120387.2      244239.56      13.825259    
     11200   5.6            4986.4761     -44783.097      20625.04       2120106.2      2120653.4      2120057.2      2120272.3      244239.56      13.825259    
     11400   5.7            4974.064      -44625.821      20573.701      2117806.8      2123086        2124542.7      2121811.8      244239.56      13.825259    
     11600   5.8            4986.3039     -44712.941      20624.327      2117579.5      2123314.5      2121636.7      2120843.5      244239.56      13.825259    
     11800   5.9            4990.4007     -44776.874      20641.272      2120774.6      2119789.9      2120439.8      2120334.8      244239.56      13.825259    
     12000   6              4979.2144     -44608.541      20595.004      2122808.2      2120139.1      2123686.7      2122211.3      244239.56      13.825259    
     12200   6.1            5032.9165     -44723.861      20817.126      2121830.1      2122215.5      2121167.7      2121737.8      244239.56      13.825259    
     12400   6.2            5027.2264     -44861.646      20793.591      2119273.8      2122461.9      2117485.9      2119740.5      244239.56      13.825259    
     12600   6.3            4963.7334     -44632.293      20530.971      2120914.8      2117455.3      2126202.4      2121524.2      244239.56      13.825259    
     12800   6.4            4977.8483     -44681.526      20589.353      2123211.5      2118824.9      2121177.2      2121071.2      244239.56      13.825259    
     13000   6.5            5018.6062     -44735.817      20757.936      2125876.1      2122580        2116111.5      2121522.5      244239.56      13.825259    
     13200   6.6            4987.8746     -44692.076      20630.824      2125439.7      2117654.7      2120543        2121212.5      244239.56      13.825259    
     13400   6.7            5004.5379     -44621.112      20699.747      2123489.4      2124439        2119432.8      2122453.7      244239.56      13.825259    
     13600   6.8            5002.3348     -44563.789      20690.634      2124103.6      2122043.4      2122987.3      2123044.8      244239.56      13.825259    
     13800   6.9            4993.4752     -44597.474      20653.989      2124082.9      2119536        2124011.4      2122543.4      244239.56      13.825259    
     14000   7              4980.2967     -44591.405      20599.48       2123049.8      2122852.4      2120992.8      2122298.3      244239.56      13.825259    
     14200   7.1            5014.051      -44527.586      20739.095      2124424.9      2125328.5      2121791.6      2123848.3      244239.56      13.825259    
     14400   7.2            4991.3906     -44705.241      20645.367      2120178.2      2120174.3      2123003.4      2121118.6      244239.56      13.825259    
     14600   7.3            4979.9345     -44841.613      20597.982      2118839        2117975.7      2120850.4      2119221.7      244239.56      13.825259    
     14800   7.4            5004.6907     -44907.229      20700.379      2113594.3      2119894        2122599.2      2118695.8      244239.56      13.825259    
     15000   7.5            5004.1636     -44856.36       20698.198      2119053        2119562.5      2119573.6      2119396.4      244239.56      13.825259    
     15200   7.6            4969.0033     -44641.479      20552.768      2119325.2      2122634.1      2122602.1      2121520.5      244239.56      13.825259    
     15400   7.7            5005.493      -44788.758      20703.697      2121202.2      2119706.1      2119719.6      2120209.3      244239.56      13.825259    
     15600   7.8            5041.4406     -44757.774      20852.383      2120165.2      2122529.4      2121859.7      2121518.1      244239.56      13.825259    
     15800   7.9            5015.605      -44648.983      20745.522      2123370.7      2121090.7      2121809.6      2122090.3      244239.56      13.825259    
     16000   8              5030.6345     -44667.882      20807.687      2120688.5      2122210        2124118.3      2122338.9      244239.56      13.825259    
     16200   8.1            5014.2329     -44546.064      20739.847      2121467.8      2123736.3      2125985.5      2123729.8      244239.56      13.825259    
     16400   8.2            5014.6616     -44671.357      20741.62       2122084.4      2121740.6      2122058.3      2121961.1      244239.56      13.825259    
     16600   8.3            5008.6165     -44844.899      20716.617      2123328.3      2117036.4      2118114.3      2119493        244239.56      13.825259    
     16800   8.4            4992.3908     -44650.514      20649.504      2124020.6      2120687.9      2120638.1      2121782.2      244239.56      13.825259    
     17000   8.5            4986.8902     -44589.752      20626.752      2121148.7      2122370.2      2124149.9      2122556.3      244239.56      13.825259    
     17200   8.6            4987.5714     -44630.755      20629.57       2120597.5      2123811.3      2122124.7      2122177.8      244239.56      13.825259    
     17400   8.7            4995.0447     -44575.208      20660.481      2123967.4      2124126.4      2119837.3      2122643.7      244239.56      13.825259    
     17600   8.8            5012.2286     -44646.599      20731.557      2123035        2122123        2121095.8      2122084.6      244239.56      13.825259    
     17800   8.9            5045.3168     -44798.521      20868.416      2118176.3      2123376.5      2121138        2120897        244239.56      13.825259    
     18000   9              5006.8089     -44766.092      20709.14       2123396.2      2120933.8      2118506.4      2120945.4      244239.56      13.825259    
     18200   9.1            4975.7722     -44721.885      20580.766      2119579.6      2120957.8      2121540.5      2120692.6      244239.56      13.825259    
     18400   9.2            4973.3527     -44809.268      20570.758      2121303.6      2119038.3      2118296.7      2119546.2      244239.56      13.825259    
     18600   9.3            4990.0594     -44889.457      20639.86       2118523.2      2121266.5      2116051.8      2118613.8      244239.56      13.825259    
     18800   9.4            5029.8626     -44725.089      20804.495      2121339.4      2126195.9      2117384        2121639.8      244239.56      13.825259    
     19000   9.5            5022.8586     -44596.1        20775.524      2121256.3      2121852.1      2126065        2123057.8      244239.56      13.825259    
     19200   9.6            5055.8924     -44872.084      20912.159      2120573.5      2122088.3      2118184.9      2120282.2      244239.56      13.825259    
     19400   9.7            5005.6968     -44718.246      20704.54       2119151.7      2123628.8      2120812.7      2121197.7      244239.56      13.825259    
     19600   9.8            4973.3046     -44743.484      20570.56       2118784.8      2122004.5      2120120.5      2120303.2      244239.56      13.825259    
     19800   9.9            4986.9559     -44794.342      20627.024      2118521.9      2121937.3      2119681.5      2120046.9      244239.56      13.825259    
     20000   10             5006.9699     -44721.187      20709.806      2121979.6      2120860.1      2121024.7      2121288.1      244239.56      13.825259    
     20200   10.1           5028.3386     -44774.906      20798.191      2122870.4      2120992.1      2118924.1      2120928.8      244239.56      13.825259    
     20400   10.2           5014.1172     -44727.438      20739.369      2120122.5      2121500.9      2122030.8      2121218.1      244239.56      13.825259    
     20600   10.3           5033.8969     -44549.47       20821.181      2123258.6      2125438.4      2122938.8      2123878.6      244239.56      13.825259    
     20800   10.4           5003.9506     -44512.914      20697.317      2123663.6      2123873.5      2124116.1      2123884.4      244239.56      13.825259    
     21000   10.5           5000.5542     -44845.05       20683.269      2122515.2      2118044.4      2117926.2      2119495.3      244239.56      13.825259    
     21200   10.6           4965.3722     -44751.45       20537.75       2122171.8      2118767.1      2119565.2      2120168.1      244239.56      13.825259    
     21400   10.7           4957.6354     -44605.323      20505.749      2121505.6      2123635        2121019.1      2122053.2      244239.56      13.825259    
     21600   10.8           5026.648      -44831.593      20791.198      2119957.7      2122107.8      2118497.7      2120187.7      244239.56      13.825259    
     21800   10.9           5033.6998     -44776.297      20820.366      2120592.3      2122944.7      2119716.9      2121084.6      244239.56      13.825259    
     22000   11             5002.7655     -44840.479      20692.415      2123543.2      2117242.1      2118525.7      2119770.3      244239.56      13.825259    
     22200   11.1           4969.7165     -44721.69       20555.718      2120337.3      2120975.5      2120807.5      2120706.8      244239.56      13.825259    
     22400   11.2           4968.8006     -44899.499      20551.93       2118445.7      2119022.4      2117214.7      2118227.6      244239.56      13.825259    
     22600   11.3           4948.0873     -44924.528      20466.256      2114048.5      2120671        2118147.6      2117622.4      244239.56      13.825259    
     22800   11.4           4936.6789     -44796.295      20419.069      2116354.4      2120770.2      2120205.6      2119110        244239.56      13.825259    
     23000   11.5           5005.6898     -44819.762      20704.511      2119986.2      2120773.2      2118508.5      2119756        244239.56      13.825259    
     23200   11.6           4986.663      -44802.678      20625.813      2119334.8      2120369.4      2119673.9      2119792.7      244239.56      13.825259    
     23400   11.7           4997.372      -44728.347      20670.107      2119623.8      2120731.2      2122547.7      2120967.6      244239.56      13.825259    
     23600   11.8           5008.9987     -44678.137      20718.197      2121070.1      2123544.8      2120808        2121807.6      244239.56      13.825259    
     23800   11.9           4990.0908     -44565.258      20639.99       2119144.6      2124818.5      2124719.8      2122894.3      244239.56      13.825259    
     24000   12             4967.2984     -44685.113      20545.717      2119973.7      2122660.3      2120155.3      2120929.8      244239.56      13.825259    
     24200   12.1           5022.0896     -44791.835      20772.344      2121891.2      2119859        2120081.6      2120610.6      244239.56      13.825259    
     24400   12.2           5004.5748     -44666.242      20699.899      2121429.2      2120964.4      2123013.8      2121802.4      244239.56      13.825259    
     24600   12.3           5022.9869     -44706.156      20776.055      2117995        2124676.5      2122430.2      2121700.6      244239.56      13.825259    
     24800   12.4           4992.591      -44691.312      20650.332      2122972.7      2118483.1      2122995.4      2121483.8      244239.56      13.825259    
     25000   12.5           5031.0478     -44935.968      20809.397      2121153.8      2121727        2114627.3      2119169.4      244239.56      13.825259    
     25200   12.6           5028.7953     -44625.191      20800.08       2124532.7      2120952.1      2122875.1      2122786.6      244239.56      13.825259    
     25400   12.7           4975.488      -44451.089      20579.59       2123832.8      2124449.2      2123588.6      2123956.9      244239.56      13.825259    
     25600   12.8           5001.1096     -44474.063      20685.567      2118488.9      2126839.5      2127153        2124160.5      244239.56      13.825259    
     25800   12.9           4990.1269     -44520.327      20640.14       2122568.7      2121467.7      2126091.9      2123376.1      244239.56      13.825259    
     26000   13             5027.5322     -44684.679      20794.856      2123527.8      2121795.1      2120535.1      2121952.7      244239.56      13.825259    
     26200   13.1           4983.9319     -44613.611      20614.516      2121972.9      2124488.6      2120476.9      2122312.8      244239.56      13.825259    
     26400   13.2           5034.8395     -44660.25       20825.08       2121871.6      2122140.9      2123544.5      2122519        244239.56      13.825259    
     26600   13.3           5001.0316     -44676.711      20685.244      2124603.9      2121276.2      2119084.7      2121655        244239.56      13.825259    
     26800   13.4           4975.7511     -44683.989      20580.679      2120389.3      2121285.1      2121751.7      2121142        244239.56      13.825259    
     27000   13.5           4975.2555     -44767.949      20578.629      2117447.2      2121275.6      2121458.5      2120060.4      244239.56      13.825259    
     27200   13.6           4956.0867     -44725.158      20499.343      2119855.6      2120610.2      2119587.9      2120017.9      244239.56      13.825259    
     27400   13.7           4975.0567     -44642.225      20577.807      2121377.5      2122644.2      2121196.5      2121739.4      244239.56      13.825259    
     27600   13.8           4977.4498     -44572.287      20587.705      2121356.2      2122537.7      2123925.5      2122606.5      244239.56      13.825259    
     27800   13.9           4999.5135     -44617.844      20678.965      2121214.6      2122932.6      2122964.8      2122370.6      244239.56      13.825259    
     28000   14             4973.6231     -44730.702      20571.877      2120540.4      2120880.8      2120033.6      2120484.9      244239.56      13.825259    
     28200   14.1           4957.5138     -44570.556      20505.246      2119337.8      2126012.3      2121449.6      2122266.6      244239.56      13.825259    
     28400   14.2           5031.6255     -44558.104      20811.786      2120147.9      2125534.3      2125644.4      2123775.5      244239.56      13.825259    
     28600   14.3           5001.3266     -44672.288      20686.464      2119757.7      2121184        2124502.3      2121814.7      244239.56      13.825259    
     28800   14.4           4965.0571     -44707.354      20536.446      2119981.9      2121369.4      2119955.2      2120435.5      244239.56      13.825259    
     29000   14.5           4968.1045     -44797.347      20549.051      2120286.2      2118963.8      2119245        2119498.3      244239.56      13.825259    
     29200   14.6           5009.0778     -44824.85       20718.524      2120557.8      2119693.7      2119209.6      2119820.3      244239.56      13.825259    
     29400   14.7           5026.9295     -44772.809      20792.363      2120333.9      2122131.5      2120206.2      2120890.5      244239.56      13.825259    
     29600   14.8           4991.1102     -44815.801      20644.207      2116626.7      2122524.9      2120669.2      2119940.3      244239.56      13.825259    
     29800   14.9           4976.2053     -44678.141      20582.557      2121240.5      2122262.3      2120071.1      2121191.3      244239.56      13.825259    
     30000   15             5003.0761     -44963.604      20693.7        2118028.4      2117378.4      2118446.5      2117951.1      244239.56      13.825259    
     30200   15.1           4982.1363     -44691.359      20607.089      2122068        2119506        2121497.6      2121023.9      244239.56      13.825259    
     30400   15.2           4998.8525     -44755.704      20676.231      2121928        2121844.8      2118418.4      2120730.4      244239.56      13.825259    
     30600   15.3           4976.5467     -44657.95       20583.969      2125297.5      2118096.2      2120771.6      2121388.4      244239.56      13.825259    
     30800   15.4           4963.3472     -44858.167      20529.374      2117532.8      2119431        2119384.1      2118782.6      244239.56      13.825259    
     31000   15.5           4983.0171     -44767.494      20610.732      2122337.2      2120268.5      2118703.7      2120436.5      244239.56      13.825259    
     31200   15.6           4977.0178     -44880.101      20585.918      2120907.9      2119692.9      2115549.3      2118716.7      244239.56      13.825259    
     31400   15.7           4977.7532     -44859.318      20588.96       2117705.1      2118797.3      2119531.1      2118677.9      244239.56      13.825259    
     31600   15.8           4963.9751     -44794.564      20531.971      2119431.7      2117182.8      2121932.2      2119515.6      244239.56      13.825259    
     31800   15.9           4985.2326     -44808.739      20619.896      2115970.4      2118954.8      2124346.3      2119757.2      244239.56      13.825259    
     32000   16             4966.138      -44743.597      20540.917      2122261.2      2118076.8      2120243.8      2120193.9      244239.56      13.825259    
     32200   16.1           4983.6849     -44714.306      20613.494      2123217.3      2120225.8      2119131.4      2120858.2      244239.56      13.825259    
     32400   16.2           5001.264      -44823.924      20686.205      2121144.5      2119382.1      2118637.9      2119721.5      244239.56      13.825259    
     32600   16.3           5023.2956     -44818.388      20777.332      2120714.5      2120836.6      2119225.4      2120258.8      244239.56      13.825259    
     32800   16.4           5001.8607     -44937.993      20688.673      2116419.2      2117425.8      2121432.7      2118425.9      244239.56      13.825259    
     33000   16.5           4993.1879     -44829.967      20652.801      2116448.9      2118643.7      2123153.1      2119415.2      244239.56      13.825259    
     33200   16.6           4955.0358     -44756.962      20494.996      2120094.1      2118436        2120739.3      2119756.4      244239.56      13.825259    
     33400   16.7           5005.0163     -44967.159      20701.725      2114182.6      2118973.8      2120915.4      2118023.9      244239.56      13.825259    
     33600   16.8           4999.7025     -44711.318      20679.746      2119213.1      2120266.2      2124146.2      2121208.5      244239.56      13.825259    
     33800   16.9           5013.3729     -44653.716      20736.29       2122080.1      2120635.6      2124073.6      2122263.1      244239.56      13.825259    
     34000   17             4986.4202     -44527.69       20624.808      2121974.1      2123144.9      2124885.3      2123334.8      244239.56      13.825259    
     34200   17.1           5042.8365     -44749.177      20858.157      2121256.2      2121745.1      2120954.4      2121318.6      244239.56      13.825259    
     34400   17.2           4982.5869     -44606.123      20608.953      2123778.6      2119276.3      2123738.8      2122264.6      244239.56      13.825259    
     34600   17.3           5024.0839     -44793.335      20780.593      2116524.2      2122149        2123835.3      2120836.2      244239.56      13.825259    
     34800   17.4           4994.9551     -44669.818      20660.11       2121294.1      2120045.3      2123815.9      2121718.4      244239.56      13.825259    
     35000   17.5           5026.582      -44652.419      20790.925      2122519.3      2124757.4      2120457.9      2122578.2      244239.56      13.825259    
     35200   17.6           5024.5275     -44742.023      20782.427      2118025.8      2122743.1      2123538.3      2121435.8      244239.56      13.825259    
     35400   17.7           5019.9025     -44689.574      20763.297      2118848.9      2122066.1      2124664.3      2121859.8      244239.56      13.825259    
     35600   17.8           5033.8273     -44739.26       20820.893      2120991.8      2120430.6      2122879.9      2121434.1      244239.56      13.825259    
     35800   17.9           5008.3638     -44651.533      20715.571      2122241.3      2121332.6      2122879.9      2122151.3      244239.56      13.825259    
     36000   18             4992.2237     -44683.183      20648.813      2118741.2      2124405.7      2120449.2      2121198.7      244239.56      13.825259    
     36200   18.1           5022.6387     -44626.55       20774.615      2121568        2123632.2      2122253.9      2122484.7      244239.56      13.825259    
     36400   18.2           5012.353      -44669.575      20732.071      2120477.8      2120884        2124877.4      2122079.7      244239.56      13.825259    
     36600   18.3           5027.6743     -44603.772      20795.443      2125252        2122441.5      2121835.4      2123176.3      244239.56      13.825259    
     36800   18.4           5013.7653     -44583.91       20737.913      2123421.7      2122334.7      2123600.3      2123118.9      244239.56      13.825259    
     37000   18.5           4988.5317     -44608.503      20633.542      2122134.9      2122763.6      2122609.5      2122502.7      244239.56      13.825259    
     37200   18.6           4986.1697     -44629.952      20623.772      2121432.5      2122835.1      2121598.4      2121955.4      244239.56      13.825259    
     37400   18.7           4962.9907     -44636.754      20527.899      2116078.7      2122823.6      2125183.1      2121361.8      244239.56      13.825259    
     37600   18.8           5004.6909     -44740.178      20700.379      2119180.3      2123615.9      2120133.9      2120976.7      244239.56      13.825259    
     37800   18.9           5009.9331     -44732.245      20722.062      2121558.7      2120474.7      2121382.6      2121138.7      244239.56      13.825259    
     38000   19             5003.8617     -44805.518      20696.95       2118444.8      2119144.6      2123189.8      2120259.7      244239.56      13.825259    
     38200   19.1           5015.5881     -44792.616      20745.452      2118183.8      2122257.8      2120966.5      2120469.4      244239.56      13.825259    
     38400   19.2           5011.8198     -44823.698      20729.866      2115858.7      2121354.9      2122397.4      2119870.3      244239.56      13.825259    
     38600   19.3           4996.3577     -44502.628      20665.912      2123726.1      2123051.3      2125138.7      2123972        244239.56      13.825259    
     38800   19.4           5036.541      -44759.392      20832.117      2122196.5      2122003.3      2120471.7      2121557.2      244239.56      13.825259    
     39000   19.5           5021.4058     -44719.958      20769.515      2122944.9      2121648.5      2120134.5      2121576        244239.56      13.825259    
     39200   19.6           5015.2612     -44627.395      20744.1        2122491        2124214.8      2121406.9      2122704.2      244239.56      13.825259    
     39400   19.7           4963.6363     -44498.457      20530.569      2128602.7      2121526.4      2119538.9      2123222.6      244239.56      13.825259    
     39600   19.8           4972.6925     -44915.473      20568.028      2120168.3      2118918.2      2114982.8      2118023.1      244239.56      13.825259    
     39800   19.9           4949.542      -44753.916      20472.273      2119551.9      2119429.6      2120011.3      2119664.3      244239.56      13.825259    
     40000   20             5010.9532     -44798.898      20726.281      2118275        2120853.1      2121763.9      2120297.3      244239.56      13.825259    
     40200   20.1           4987.8959     -44645.028      20630.912      2122152        2121071.7      2122216.3      2121813.3      244239.56      13.825259    
     40400   20.2           4978.1522     -44816.094      20590.61       2121768.5      2119094.3      2117275.8      2119379.6      244239.56      13.825259    
     40600   20.3           4997.7264     -44868.613      20671.573      2116673.4      2124031.5      2117018.2      2119241        244239.56      13.825259    
     40800   20.4           4968.4738     -44746.689      20550.579      2117572.2      2122000.4      2121323.6      2120298.7      244239.56      13.825259    
     41000   20.5           4999.4488     -44788.277      20678.697      2117288.4      2120431.7      2122791.7      2120170.6      244239.56      13.825259    
     41200   20.6           5019.1955     -44572.62       20760.373      2120745.9      2125982.3      2123424.2      2123384.1      244239.56      13.825259    
     41400   20.7           4985.6974     -44667.391      20621.818      2126694.7      2118366        2120160.4      2121740.4      244239.56      13.825259    
     41600   20.8           4977.082      -44665.397      20586.184      2123468.2      2121342.4      2118581.6      2121130.7      244239.56      13.825259    
     41800   20.9           5018.9482     -44636.191      20759.35       2128874        2120342.2      2118201.5      2122472.6      244239.56      13.825259    
     42000   21             5040.9308     -44724.448      20850.275      2123819.6      2119330        2121938        2121695.9      244239.56      13.825259    
     42200   21.1           4983.8676     -44711.555      20614.25       2118880        2117004.6      2126644.5      2120843        244239.56      13.825259    
     42400   21.2           4979.3401     -44756.541      20595.523      2117271.7      2121504.1      2122532.4      2120436.1      244239.56      13.825259    
     42600   21.3           5022.7941     -44730.248      20775.258      2117505.8      2125301.5      2121493.6      2121433.6      244239.56      13.825259    
     42800   21.4           5024.4914     -44620.325      20782.278      2121576.5      2125068.2      2121206.3      2122617        244239.56      13.825259    
     43000   21.5           4987.5644     -44570.784      20629.541      2123798.6      2123461.3      2121642.4      2122967.4      244239.56      13.825259    
     43200   21.6           4988.6978     -44629.481      20634.229      2118412.9      2126985.2      2120950.5      2122116.2      244239.56      13.825259    
     43400   21.7           5007.2254     -44697.252      20710.862      2120188.5      2120302.7      2124436.4      2121642.5      244239.56      13.825259    
     43600   21.8           5017.3106     -44660.495      20752.577      2119426.4      2121007.3      2126361.7      2122265.1      244239.56      13.825259    
     43800   21.9           5000.0026     -44532.667      20680.988      2124800.7      2124230        2122111.5      2123714.1      244239.56      13.825259    
     44000   22             5032.7376     -44613.771      20816.386      2118213.8      2127334.8      2123896        2123148.2      244239.56      13.825259    
     44200   22.1           5034.4641     -44751.349      20823.527      2119594.4      2125289        2118763.9      2121215.8      244239.56      13.825259    
     44400   22.2           4992.9613     -44608.433      20651.863      2123909.8      2119951.5      2123562.1      2122474.5      244239.56      13.825259    
     44600   22.3           5047.5085     -44689.207      20877.481      2121479.9      2124243.5      2121892.6      2122538.7      244239.56      13.825259    
     44800   22.4           5011.2064     -44510.054      20727.329      2124814.4      2123153.1      2123859.3      2123942.3      244239.56      13.825259    
     45000   22.5           5000.5086     -44691.737      20683.081      2124827.8      2120540.2      2119124.5      2121497.5      244239.56      13.825259    
     45200   22.6           5016.0483     -44620.193      20747.356      2125742.6      2120662        2120937.6      2122447.4      244239.56      13.825259    
     45400   22.7           4986.4377     -44511.768      20624.881      2124122.1      2125695.1      2121026.5      2123614.6      244239.56      13.825259    
     45600   22.8           4999.3803     -44769.906      20678.414      2124760.3      2115852.1      2120638.5      2120416.9      244239.56      13.825259    
     45800   22.9           4968.6222     -44852.041      20551.192      2120101.1      2119303.5      2116919.7      2118774.8      244239.56      13.825259    
     46000   23             5018.3021     -44875.122      20756.678      2120766.2      2121467        2116426.5      2119553.2      244239.56      13.825259    
     46200   23.1           5029.3849     -44884.536      20802.519      2115939.7      2122721.3      2120263.9      2119641.6      244239.56      13.825259    
     46400   23.2           4998.7143     -44740.706      20675.659      2118909.1      2121514.3      2121462.4      2120628.6      244239.56      13.825259    
     46600   23.3           5028.6731     -44556.633      20799.574      2121064.9      2125872.2      2124874.5      2123937.2      244239.56      13.825259    
     46800   23.4           5002.6833     -44550.718      20692.075      2124844.3      2122785.4      2122201.6      2123277.1      244239.56      13.825259    
     47000   23.5           4977.1771     -44572.405      20586.577      2119908        2128976.3      2118592.3      2122492.2      244239.56      13.825259    
     47200   23.6           5009.546      -44753.394      20720.461      2121973.1      2121529.8      2118839.5      2120780.8      244239.56      13.825259    
     47400   23.7           5015.3441     -44628.151      20744.443      2120161.1      2125145.1      2122882.8      2122729.7      244239.56      13.825259    
     47600   23.8           4985.4908     -44572.019      20620.964      2124806.6      2121200.1      2121812.9      2122606.5      244239.56      13.825259    
     47800   23.9           4999.9862     -44704.65       20680.92       2123864.1      2118128.1      2122108.9      2121367        244239.56      13.825259    
     48000   24             4981.4589     -44712.507      20604.287      2120571.4      2121033.3      2120883.3      2120829.3      244239.56      13.825259    
     48200   24.1           4977.0671     -44499.034      20586.122      2120367.8      2124226.4      2125614        2123402.8      244239.56      13.825259    
     48400   24.2           4993.6785     -44824.448      20654.83       2121898.4      2117794.8      2119430.4      2119707.9      244239.56      13.825259    
     48600   24.3           4998.4746     -44890.075      20674.668      2119551.4      2119492.3      2118265.4      2119103        244239.56      13.825259    
     48800   24.4           5002.253      -44969.847      20690.296      2117149.7      2117310.7      2119005.7      2117822        244239.56      13.825259    
     49000   24.5           4970.6748     -44711.451      20559.682      2118055.7      2121968.7      2121786.7      2120603.7      244239.56      13.825259    
     49200   24.6           5024.9788     -44643.956      20784.294      2119280.3      2126953.9      2121126        2122453.4      244239.56      13.825259    
     49400   24.7           5024.563      -44604.947      20782.574      2122250.1      2124938.1      2122405.8      2123198        244239.56      13.825259    
     49600   24.8           5013.1216     -44615.955      20735.251      2120368.4      2125263.4      2122696.1      2122776        244239.56      13.825259    
     49800   24.9           5021.556      -44512.328      20770.137      2121640.8      2126088.8      2124765.3      2124164.9      244239.56      13.825259    
     50000   25             5020.4466     -44650.504      20765.548      2122741.7      2122860        2121503.6      2122368.4      244239.56      13.825259    
Loop time of 71.9656 on 1 procs for 50000 steps with 32000 atoms

Performance: 30.014 ns/day, 0.800 hours/ns, 694.777 timesteps/s, 22.233 Matom-step/s
99.6% CPU use with 1 MPI tasks x 1 OpenMP threads

MPI task timing breakdown:
Section |  min time  |  avg time  |  max time  |%varavg| %total
---------------------------------------------------------------
Pair    | 40.743     | 40.743     | 40.743     |   0.0 | 56.61
Neigh   | 0.39305    | 0.39305    | 0.39305    |   0.0 |  0.55
Comm    | 26.4       | 26.4       | 26.4       |   0.0 | 36.68
Output  | 0.12022    | 0.12022    | 0.12022    |   0.0 |  0.17
Modify  | 2.2238     | 2.2238     | 2.2238     |   0.0 |  3.09
Other   |            | 2.086      |            |       |  2.90

Nlocal:          32000 ave       32000 max       32000 min
Histogram: 1 0 0 0 0 0 0 0 0 0
Nghost:          30887 ave       30887 max       30887 min
Histogram: 1 0 0 0 0 0 0 0 0 0
Neighs:    4.26198e+06 ave 4.26198e+06 max 4.26198e+06 min
Histogram: 1 0 0 0 0 0 0 0 0 0

Total # of neighbors = 4261982
Ave neighs/atom = 133.18694
Neighbor list builds = 821
Dangerous builds = 0
Total wall time: 0:01:14
