LAMMPS (10 Sep 2025)
KOKKOS mode with Kokkos version 4.6.2 is enabled
  using double precision
  using view layout = legacy
  will use up to 1 GPU(s) per node
  using 1 OpenMP thread(s) per MPI task
package kokkos
package kokkos newton on neigh half comm device
dimension       3
units           metal
atom_style      atomic
boundary        p p p

# --- Create FCC Cu lattice ---
#lattice         fcc 3.52
#region          box block 0 20 0 20 0 20
#create_box      1 box
#create_atoms    1 box
#mass            1 63.546

read_data       ../../../eos/0.72V/Cu-0.72V.lmp
Reading data file ...
  orthogonal box = (3.6509088 3.6509088 3.6509088) to (66.749091 66.749091 66.749091)
  1 by 1 by 1 MPI processor grid
  reading atoms ...
  32000 atoms
  reading velocities ...
  32000 velocities
  read_data CPU = 0.151 seconds
#change_box     all x scale _scale_ y scale _scale_ z scale _scale_ remap

neighbor        2.0 bin
neigh_modify    delay 0 every 1 check yes

pair_style      eam/alloy
pair_coeff      * * Cu-EAM-Z1622old.eam.alloy Cu

shell           "mkdir -p dumps"

variable	thold equal 5000
variable	itemp equal 2*5000
variable	runNVE equal 50000
variable	tstep equal 0.0005
variable	ph string 5000K-0.72V

timestep        ${tstep}
timestep        0.0005
thermo          200
thermo_style    custom step time temp pe ke pxx pyy pzz press vol density
#thermo_modify	norm yes

dump        	RDUMP all custom 20000 dumps/${ph}-NV-5000K-*.xyz id type x y z
dump        	RDUMP all custom 20000 dumps/5000K-0.72V-NV-5000K-*.xyz id type x y z

#NV  5000K calculation
velocity 		all create ${itemp}  23796
velocity 		all create 10000  23796

fix 			LANG all langevin ${thold} ${thold} $(300.0*dt) 33948
fix 			LANG all langevin 5000 ${thold} $(300.0*dt) 33948
fix 			LANG all langevin 5000 5000 $(300.0*dt) 33948
fix 			LANG all langevin 5000 5000 0.14999999999999999445 33948
fix 			NVE all nve
run  			${runNVE}
run  			50000
Neighbor list info ...
  update: every = 1 steps, delay = 0 steps, check = yes
  max neighbors/atom: 2000, page size: 100000
  master list distance cutoff = 7.859375
  ghost atom cutoff = 7.859375
  binsize = 7.859375, bins = 9 9 9
  1 neighbor lists, perpetual/occasional/extra = 1 0 0
  (1) pair eam/alloy/kk, perpetual
      attributes: half, newton on, kokkos_device
      pair build: half/bin/newton/kk/device
      stencil: half/bin/3d
      bin: kk/device
Per MPI rank memory allocation (min/avg/max) = 11.5 | 11.5 | 11.5 Mbytes
   Step          Time           Temp          PotEng         KinEng          Pxx            Pyy            Pzz           Press          Volume        Density    
         0   0              10000         -73096.453      41361.954      1684352.1      1683314.1      1683352.8      1683673        251217.88      13.441222    
       200   0.1            4939.4866     -52097.713      20430.681      1872118.1      1877223.1      1876598.3      1875313.2      251217.88      13.441222    
       400   0.2            4936.4223     -51681.875      20418.007      1879939.2      1880094.8      1881949.4      1880661.1      251217.88      13.441222    
       600   0.3            5008.84       -51844.743      20717.541      1880776.8      1879492        1879949.5      1880072.8      251217.88      13.441222    
       800   0.4            4977.5855     -51582.45       20588.266      1880684.1      1882577.5      1885583.2      1882948.3      251217.88      13.441222    
      1000   0.5            5026.3421     -51837.476      20789.933      1880316.3      1881633        1879298.6      1880415.9      251217.88      13.441222    
      1200   0.6            4980.269      -51738.556      20599.365      1882370.2      1879970.3      1880460.7      1880933.7      251217.88      13.441222    
      1400   0.7            4996.3503     -51964.774      20665.881      1878962.5      1879439.3      1876656.9      1878352.9      251217.88      13.441222    
      1600   0.8            4970.803      -51638.386      20560.212      1879507.2      1885993.7      1880722        1882074.3      251217.88      13.441222    
      1800   0.9            4974.6949     -51724.08       20576.31       1881566.7      1880536.9      1881071.3      1881058.3      251217.88      13.441222    
      2000   1              4990.9212     -51560.737      20643.425      1880875.3      1884806.1      1884330        1883337.1      251217.88      13.441222    
      2200   1.1            5026.7445     -51756.653      20791.597      1878919.1      1883927.5      1881959.2      1881602        251217.88      13.441222    
      2400   1.2            4991.3174     -51508.102      20645.064      1878763.4      1888795.4      1884493.7      1884017.5      251217.88      13.441222    
      2600   1.3            4989.7522     -51571.773      20638.59       1880173.6      1884617        1885019.6      1883270.1      251217.88      13.441222    
      2800   1.4            5008.0797     -51669.762      20714.396      1881296.9      1883180.9      1881676.9      1882051.6      251217.88      13.441222    
      3000   1.5            5000.1152     -51709.751      20681.454      1880687.9      1880545.2      1884048.7      1881760.6      251217.88      13.441222    
      3200   1.6            4990.5731     -51727.38       20641.985      1882216.6      1879167.8      1882340.1      1881241.5      251217.88      13.441222    
      3400   1.7            4971.6998     -51745.502      20563.922      1881591.1      1875658.8      1885193.8      1880814.6      251217.88      13.441222    
      3600   1.8            4948.3427     -51695.225      20467.312      1880883.6      1881649.5      1879736.9      1880756.7      251217.88      13.441222    
      3800   1.9            5004.1694     -51697.493      20698.222      1882573.6      1879287        1882919.3      1881593.3      251217.88      13.441222    
      4000   2              4989.2829     -51495.969      20636.649      1885704        1884219.2      1881530.8      1883818        251217.88      13.441222    
      4200   2.1            4988.3017     -51637.738      20632.591      1880229        1882803.6      1883725.7      1882252.8      251217.88      13.441222    
      4400   2.2            5003.6148     -51770.469      20695.928      1878919        1884236        1879530.4      1880895.1      251217.88      13.441222    
      4600   2.3            4998.7677     -51759.284      20675.88       1881243.8      1879964.6      1881209.1      1880805.8      251217.88      13.441222    
      4800   2.4            4973.2328     -51592.883      20570.263      1880682.6      1884703.5      1882624.6      1882670.2      251217.88      13.441222    
      5000   2.5            4986.3262     -51740.043      20624.419      1880372.2      1881800.1      1880668        1880946.8      251217.88      13.441222    
      5200   2.6            5008.9574     -51695.912      20718.026      1883819.5      1879740.7      1882557.9      1882039.4      251217.88      13.441222    
      5400   2.7            5012.6952     -51757.115      20733.487      1883696.6      1882336        1876988        1881006.9      251217.88      13.441222    
      5600   2.8            4926.1854     -51469.276      20375.665      1882238        1884497.3      1883377        1883370.8      251217.88      13.441222    
      5800   2.9            5020.7327     -51539.181      20766.732      1884942.1      1882306        1884793.8      1884014        251217.88      13.441222    
      6000   3              5009.194      -51498.462      20719.005      1885709.9      1881040.5      1885995.3      1884248.6      251217.88      13.441222    
      6200   3.1            4998.1447     -51573.202      20673.303      1881245.9      1884425.9      1883793        1883154.9      251217.88      13.441222    
      6400   3.2            5001.7903     -51548.469      20688.382      1882202.4      1882491.1      1886074.9      1883589.4      251217.88      13.441222    
      6600   3.3            4985.5537     -51560.642      20621.224      1884720.2      1882603        1882274.9      1883199.4      251217.88      13.441222    
      6800   3.4            5019.3821     -51424.721      20761.145      1884612.5      1884988.9      1885521.2      1885040.9      251217.88      13.441222    
      7000   3.5            5047.5273     -51474.755      20877.559      1883910.6      1886453.3      1885088.7      1885150.8      251217.88      13.441222    
      7200   3.6            5003.0404     -51562.766      20693.553      1883187.2      1883302.3      1882682.5      1883057.3      251217.88      13.441222    
      7400   3.7            5023.3818     -51758.871      20777.689      1888930.9      1879577.5      1875411.7      1881306.7      251217.88      13.441222    
      7600   3.8            4975.486      -51510.224      20579.582      1884526.2      1883747        1881684.1      1883319.1      251217.88      13.441222    
      7800   3.9            5008.0745     -51499.911      20714.375      1883066.6      1885446.1      1884102.7      1884205.1      251217.88      13.441222    
      8000   4              4988.857      -51512.296      20634.887      1881217        1886210.3      1883519.2      1883648.8      251217.88      13.441222    
      8200   4.1            5035.8941     -51583.254      20829.442      1887114.9      1880193.1      1883898        1883735.3      251217.88      13.441222    
      8400   4.2            5004.324      -51488.774      20698.862      1886329.7      1881183.3      1885489.8      1884334.3      251217.88      13.441222    
      8600   4.3            5026.7224     -51601.751      20791.506      1885188.1      1883373.2      1881955.3      1883505.6      251217.88      13.441222    
      8800   4.4            5024.7368     -51555.742      20783.293      1882478.5      1881809.9      1886934.7      1883741        251217.88      13.441222    
      9000   4.5            4979.9589     -51523.775      20598.083      1884508.6      1881985.3      1883714        1883402.6      251217.88      13.441222    
      9200   4.6            5004.1518     -51758.136      20698.149      1882041.2      1883183.4      1877027.2      1880750.6      251217.88      13.441222    
      9400   4.7            4964.7076     -51637.769      20535.001      1880371.2      1883731.9      1882460.8      1882188        251217.88      13.441222    
      9600   4.8            4991.5684     -51807.968      20646.102      1880150        1882739.9      1877708.7      1880199.5      251217.88      13.441222    
      9800   4.9            4998.4004     -51595.404      20674.36       1882009.6      1880786.7      1886035.2      1882943.9      251217.88      13.441222    
     10000   5              4963.7936     -51488.458      20531.22       1880275.4      1883774.3      1886885.7      1883645.1      251217.88      13.441222    
     10200   5.1            5028.2482     -51617.262      20797.817      1882358.8      1884312.2      1883004        1883225        251217.88      13.441222    
     10400   5.2            4990.9422     -51481.475      20643.512      1883234.4      1886517.3      1882983.3      1884245        251217.88      13.441222    
     10600   5.3            5029.8036     -51535.755      20804.25       1881442.5      1885162.5      1885946.4      1884183.8      251217.88      13.441222    
     10800   5.4            5035.1544     -51538.557      20826.383      1884215.8      1882143.7      1886558.3      1884305.9      251217.88      13.441222    
     11000   5.5            5018.7971     -51503.181      20758.726      1886530.2      1883277.1      1883365.9      1884391.1      251217.88      13.441222    
     11200   5.6            4980.0828     -51432.924      20598.595      1881647.6      1884719.1      1887062.6      1884476.4      251217.88      13.441222    
     11400   5.7            5017.0002     -51600.172      20751.293      1884306.1      1885498        1879611.7      1883138.6      251217.88      13.441222    
     11600   5.8            4997.024      -51593.845      20668.667      1881896.7      1884604.8      1882513.8      1883005.1      251217.88      13.441222    
     11800   5.9            4981.9169     -51766.9        20606.182      1879185        1881720.9      1880866.8      1880590.9      251217.88      13.441222    
     12000   6              4964.3694     -51815.001      20533.602      1879215.6      1880541.4      1879928.4      1879895.1      251217.88      13.441222    
     12200   6.1            4963.7088     -51817.132      20530.87       1879403.9      1878797.5      1879597.6      1879266.3      251217.88      13.441222    
     12400   6.2            4966.6149     -51740.33       20542.89       1879828.7      1880196.9      1881221.8      1880415.8      251217.88      13.441222    
     12600   6.3            4975.3104     -51619.233      20578.856      1879948.3      1881629.3      1884504.7      1882027.4      251217.88      13.441222    
     12800   6.4            4982.1767     -51609.776      20607.256      1877618.5      1882385.7      1887794.3      1882599.5      251217.88      13.441222    
     13000   6.5            5000.5224     -51375.898      20683.138      1889080.3      1883897.4      1883574.1      1885517.3      251217.88      13.441222    
     13200   6.6            5012.9402     -51637.692      20734.5        1885786.6      1883128.7      1879207.3      1882707.5      251217.88      13.441222    
     13400   6.7            4982.3142     -51459.996      20607.825      1885752.7      1886102.9      1881013.4      1884289.7      251217.88      13.441222    
     13600   6.8            5001.5439     -51662.841      20687.363      1882630.6      1881943.7      1881895.6      1882156.7      251217.88      13.441222    
     13800   6.9            4991.5669     -51630.086      20646.096      1883333.7      1883096.4      1881620        1882683.4      251217.88      13.441222    
     14000   7              4995.3555     -51420.734      20661.766      1885200.5      1885008.3      1884869.2      1885026        251217.88      13.441222    
     14200   7.1            5017.8372     -51468.392      20754.755      1888793.8      1881294.4      1883658.1      1884582.1      251217.88      13.441222    
     14400   7.2            5003.6409     -51673.399      20696.036      1881265.9      1881100.9      1883667.1      1882011.3      251217.88      13.441222    
     14600   7.3            4986.5601     -51556.168      20625.387      1883650.1      1881607.8      1884404.5      1883220.8      251217.88      13.441222    
     14800   7.4            5012.6729     -51503.187      20733.395      1887146.3      1883448.9      1882632.3      1884409.2      251217.88      13.441222    
     15000   7.5            5021.5711     -51689.173      20770.199      1881896        1883757.5      1880567.1      1882073.6      251217.88      13.441222    
     15200   7.6            4980.0295     -51674.816      20598.375      1886635.7      1881177.2      1877049.5      1881620.8      251217.88      13.441222    
     15400   7.7            4981.3187     -51728.21       20603.707      1882618.7      1880562.6      1879677        1880952.8      251217.88      13.441222    
     15600   7.8            4992.4418     -51714.901      20649.715      1879787.7      1878764.4      1885658.8      1881403.6      251217.88      13.441222    
     15800   7.9            4976.0533     -51622.617      20581.929      1884466.1      1879585.4      1882416.6      1882156        251217.88      13.441222    
     16000   8              4988.1535     -51604.143      20631.977      1885066.1      1882443.7      1880589.3      1882699.7      251217.88      13.441222    
     16200   8.1            4995.3375     -51662.246      20661.692      1882529.9      1883275.5      1880875.2      1882226.9      251217.88      13.441222    
     16400   8.2            5000.7076     -51567.088      20683.903      1880568.3      1884652.8      1884438.3      1883219.8      251217.88      13.441222    
     16600   8.3            4996.0597     -51750.769      20664.679      1880227.4      1880420.5      1882457.3      1881035.1      251217.88      13.441222    
     16800   8.4            5013.182      -51580.068      20735.5        1881139.8      1885639.4      1883428.2      1883402.4      251217.88      13.441222    
     17000   8.5            5036.5193     -51512.723      20832.028      1881725.2      1890979.9      1881335.3      1884680.2      251217.88      13.441222    
     17200   8.6            5056.8256     -51566.987      20916.019      1885670.8      1885346.3      1882233.3      1884416.8      251217.88      13.441222    
     17400   8.7            4982.9092     -51404.924      20610.286      1885494.4      1888721.5      1880734.9      1884983.6      251217.88      13.441222    
     17600   8.8            5000.2101     -51641.637      20681.846      1884853.9      1880501.2      1881627.7      1882327.6      251217.88      13.441222    
     17800   8.9            5013.8098     -51691.557      20738.097      1881631.1      1882524.4      1881526.6      1881894        251217.88      13.441222    
     18000   9              5028.4273     -51715.168      20798.558      1881339.3      1884025.4      1880645.3      1882003.3      251217.88      13.441222    
     18200   9.1            4984.1255     -51572.826      20615.317      1880810.5      1882980.4      1885488.2      1883093        251217.88      13.441222    
     18400   9.2            4987.0458     -51657.579      20627.396      1882643        1881295.6      1881015.1      1881651.2      251217.88      13.441222    
     18600   9.3            5013.6854     -51753.714      20737.582      1879558.9      1882603.8      1880960.5      1881041.1      251217.88      13.441222    
     18800   9.4            4992.6272     -51517.96       20650.482      1883870.5      1885621.8      1882463.3      1883985.2      251217.88      13.441222    
     19000   9.5            5005.5698     -51523.123      20704.015      1883628.3      1885612.2      1883224        1884154.8      251217.88      13.441222    
     19200   9.6            5013.3796     -51666.819      20736.317      1880850.7      1881079.3      1884821.3      1882250.4      251217.88      13.441222    
     19400   9.7            5004.6483     -51622.925      20700.203      1886116.3      1881800.3      1881019.5      1882978.7      251217.88      13.441222    
     19600   9.8            4999.5533     -51695.78       20679.129      1882443.2      1879108.1      1882598.2      1881383.2      251217.88      13.441222    
     19800   9.9            5013.7088     -51697.923      20737.679      1880208.9      1880664.2      1884227.5      1881700.2      251217.88      13.441222    
     20000   10             5022.3688     -51626.949      20773.499      1885022        1881043.3      1883188.2      1883084.5      251217.88      13.441222    
     20200   10.1           4983.8759     -51575.102      20614.284      1883432.1      1880583.5      1884963.2      1882992.9      251217.88      13.441222    
     20400   10.2           5001.1214     -51658.772      20685.615      1883889.8      1878570.9      1883799.4      1882086.7      251217.88      13.441222    
     20600   10.3           5000.6588     -51598.713      20683.702      1884531.9      1883097.5      1881799.1      1883142.8      251217.88      13.441222    
     20800   10.4           4986.8287     -51592.127      20626.498      1882703.3      1884365        1881127.2      1882731.8      251217.88      13.441222    
     21000   10.5           4995.8024     -51711.485      20663.615      1882491.8      1880349.6      1882423.1      1881754.9      251217.88      13.441222    
     21200   10.6           5002.5304     -51749.594      20691.443      1884269.8      1880409.8      1878360.4      1881013.3      251217.88      13.441222    
     21400   10.7           4958.5204     -51753.564      20509.409      1877780.9      1881101.5      1882228.8      1880370.4      251217.88      13.441222    
     21600   10.8           5010.1827     -51790.414      20723.094      1882755.3      1878432.2      1880798.6      1880662        251217.88      13.441222    
     21800   10.9           4995.2179     -51709.747      20661.197      1880485.2      1881700.4      1882104.6      1881430.1      251217.88      13.441222    
     22000   11             5005.9066     -51815.965      20705.408      1880820.8      1881006.1      1879905.8      1880577.6      251217.88      13.441222    
     22200   11.1           4982.8015     -51719.342      20609.841      1880704.4      1882799.4      1879722.6      1881075.5      251217.88      13.441222    
     22400   11.2           4965.9632     -51615.743      20540.194      1883584.6      1881138.6      1881621.7      1882115        251217.88      13.441222    
     22600   11.3           4968.2202     -51522.525      20549.529      1881032        1884938.7      1883970.3      1883313.7      251217.88      13.441222    
     22800   11.4           4995.8275     -51723.592      20663.719      1882689.2      1882823.3      1878817.6      1881443.4      251217.88      13.441222    
     23000   11.5           5017.5101     -51847.851      20753.402      1878427.5      1881288.8      1880970        1880228.8      251217.88      13.441222    
     23200   11.6           4950.4208     -51600.98       20475.908      1882199.9      1884236.9      1880661        1882365.9      251217.88      13.441222    
     23400   11.7           5013.4157     -51641.652      20736.467      1881251.6      1883804.4      1883462.9      1882839.6      251217.88      13.441222    
     23600   11.8           4987.956      -51533.654      20631.161      1885963.1      1884443.9      1880053.5      1883486.8      251217.88      13.441222    
     23800   11.9           5027.3003     -51630.469      20793.896      1880208.4      1884167.2      1884984.6      1883120.1      251217.88      13.441222    
     24000   12             5026.1813     -51472.378      20789.268      1882906.7      1880714        1891052.1      1884890.9      251217.88      13.441222    
     24200   12.1           5033.9981     -51698.562      20821.6        1882126.4      1884092.3      1880160.1      1882126.3      251217.88      13.441222    
     24400   12.2           4999.1683     -51541.393      20677.537      1886683.3      1877855.3      1886527.2      1883688.6      251217.88      13.441222    
     24600   12.3           5005.1501     -51577.669      20702.279      1881694.1      1884176.7      1884056        1883308.9      251217.88      13.441222    
     24800   12.4           4987.5761     -51801.518      20629.589      1878811.4      1880348.6      1881639.6      1880266.5      251217.88      13.441222    
     25000   12.5           5002.759      -51777.21       20692.389      1881464.7      1880895.9      1879558.7      1880639.8      251217.88      13.441222    
     25200   12.6           4998.6674     -51731.994      20675.465      1879721.2      1883843.8      1880296.6      1881287.2      251217.88      13.441222    
     25400   12.7           4990.8873     -51551.104      20643.285      1883170.3      1884615.1      1882924.6      1883570        251217.88      13.441222    
     25600   12.8           4996.7473     -51404.443      20667.523      1884071.6      1887102.9      1884256.4      1885143.6      251217.88      13.441222    
     25800   12.9           4972.0367     -51573.878      20565.315      1880802.2      1882607.8      1884971        1882793.7      251217.88      13.441222    
     26000   13             4990.5729     -51727.019      20641.985      1879114.4      1880340.8      1883256.6      1880903.9      251217.88      13.441222    
     26200   13.1           5000.4372     -51506.829      20682.785      1884160.3      1885037.4      1882487.5      1883895.1      251217.88      13.441222    
     26400   13.2           4979.0235     -51520.77       20594.214      1884428.1      1883003.8      1882327.5      1883253.1      251217.88      13.441222    
     26600   13.3           5014.9989     -51554.666      20743.015      1881050        1881475.9      1887631.1      1883385.7      251217.88      13.441222    
     26800   13.4           5033.1434     -51617.691      20818.065      1880647.9      1883545.4      1885020.7      1883071.4      251217.88      13.441222    
     27000   13.5           4981.2811     -51534.177      20603.552      1883962.3      1880505.6      1885736.1      1883401.3      251217.88      13.441222    
     27200   13.6           4966.0841     -51503.411      20540.694      1884728        1881991.4      1883575.9      1883431.8      251217.88      13.441222    
     27400   13.7           4979.7756     -51677.607      20597.325      1878394.5      1883038.5      1882340.3      1881257.7      251217.88      13.441222    
     27600   13.8           5007.3133     -51659.994      20711.226      1882471.8      1882409.8      1881878.2      1882253.3      251217.88      13.441222    
     27800   13.9           5029.341      -51592.61       20802.337      1884225.2      1884140.2      1880780.5      1883048.6      251217.88      13.441222    
     28000   14             4965.5585     -51393.126      20538.52       1885423.5      1884779.8      1883404        1884535.8      251217.88      13.441222    
     28200   14.1           5001.1081     -51609.195      20685.56       1886135.8      1882319.6      1878823.9      1882426.4      251217.88      13.441222    
     28400   14.2           4975.044      -51499.201      20577.754      1883746.4      1883333        1883544        1883541.2      251217.88      13.441222    
     28600   14.3           4995.2613     -51666.318      20661.377      1881954        1881845.2      1881252.3      1881683.8      251217.88      13.441222    
     28800   14.4           4976.8841     -51694.057      20585.365      1881198.1      1881372.9      1881105.8      1881225.6      251217.88      13.441222    
     29000   14.5           5000.2083     -51792.06       20681.838      1879816.2      1880033.8      1880985.8      1880278.6      251217.88      13.441222    
     29200   14.6           4990.0697     -51716.767      20639.903      1880703.5      1881466.4      1881895.2      1881355        251217.88      13.441222    
     29400   14.7           4945.9306     -51578.739      20457.335      1880872.1      1881612.2      1884241.5      1882241.9      251217.88      13.441222    
     29600   14.8           4995.8134     -51689.161      20663.66       1880087.2      1883213.7      1882014.6      1881771.8      251217.88      13.441222    
     29800   14.9           5015.7722     -51621.969      20746.214      1878999.3      1883198.4      1885918.7      1882705.5      251217.88      13.441222    
     30000   15             4998.4259     -51675.555      20674.466      1884258.2      1881285.2      1880341.4      1881961.6      251217.88      13.441222    
     30200   15.1           4977.7228     -51589.997      20588.834      1883084.1      1879964.3      1884630        1882559.5      251217.88      13.441222    
     30400   15.2           4978.8136     -51630.415      20593.346      1878846        1882873.7      1884600.3      1882106.7      251217.88      13.441222    
     30600   15.3           4997.519      -51548.049      20670.715      1882021.3      1884837.7      1883213.1      1883357.4      251217.88      13.441222    
     30800   15.4           4981.1851     -51568.402      20603.155      1882404.5      1884818.3      1880980.3      1882734.4      251217.88      13.441222    
     31000   15.5           5000.9211     -51472.205      20684.787      1882977.2      1883462.3      1886549.2      1884329.6      251217.88      13.441222    
     31200   15.6           4985.3548     -51351.021      20620.401      1882400        1888283.1      1885394.8      1885359.3      251217.88      13.441222    
     31400   15.7           5008.0543     -51474.226      20714.291      1884529.6      1883887.3      1885076.7      1884497.9      251217.88      13.441222    
     31600   15.8           5001.8826     -51527.467      20688.764      1882745.9      1880345.7      1888240.2      1883777.3      251217.88      13.441222    
     31800   15.9           5012.5058     -51368.854      20732.703      1883609.2      1887417.2      1885959.5      1885662        251217.88      13.441222    
     32000   16             5032.4179     -51416.731      20815.064      1882012        1888271.1      1885678.8      1885320.6      251217.88      13.441222    
     32200   16.1           4997.4603     -51331.005      20670.472      1883769.7      1887856.3      1886328.9      1885985        251217.88      13.441222    
     32400   16.2           5006.8275     -51443.787      20709.217      1886401.2      1885430.3      1882636        1884822.5      251217.88      13.441222    
     32600   16.3           5036.6256     -51453.018      20832.468      1885113.5      1884623.8      1885771.9      1885169.7      251217.88      13.441222    
     32800   16.4           5006.683      -51301.933      20708.619      1883806.8      1889395.3      1886208        1886470        251217.88      13.441222    
     33000   16.5           5011.9108     -51466.938      20730.242      1885418.5      1886537.8      1882274.3      1884743.5      251217.88      13.441222    
     33200   16.6           4989.2555     -51547.748      20636.535      1882235.3      1883218.9      1883835.8      1883096.6      251217.88      13.441222    
     33400   16.7           4995.9277     -51613.275      20664.133      1880441.7      1882624.3      1883945.4      1882337.1      251217.88      13.441222    
     33600   16.8           4965.371      -51560.901      20537.744      1880802.2      1883827.3      1883363.3      1882664.3      251217.88      13.441222    
     33800   16.9           4981.5499     -51646.124      20604.664      1880484.8      1882026.8      1882943.1      1881818.3      251217.88      13.441222    
     34000   17             4983.547      -51460.269      20612.924      1885794.1      1885238.2      1882145.7      1884392.6      251217.88      13.441222    
     34200   17.1           5010.8335     -51538.424      20725.786      1882028.6      1884567.9      1885217        1883937.9      251217.88      13.441222    
     34400   17.2           4999.9997     -51451.394      20680.976      1886204.9      1884560.4      1882708.9      1884491.4      251217.88      13.441222    
     34600   17.3           5023.7405     -51698.741      20779.172      1882116.1      1883561.1      1880520.4      1882065.9      251217.88      13.441222    
     34800   17.4           4979.4754     -51599.004      20596.083      1883816.8      1879487.7      1884245.3      1882516.6      251217.88      13.441222    
     35000   17.5           4996.9828     -51441.694      20668.497      1883694.9      1885433.6      1884404.1      1884510.9      251217.88      13.441222    
     35200   17.6           4993.5372     -51593.709      20654.245      1882535.6      1881794.1      1883325.7      1882551.8      251217.88      13.441222    
     35400   17.7           4973.2269     -51496.796      20570.238      1883588.4      1884579.2      1883504.9      1883890.8      251217.88      13.441222    
     35600   17.8           4998.4169     -51466.617      20674.429      1888132.9      1882207.1      1882655        1884331.6      251217.88      13.441222    
     35800   17.9           4984.2238     -51501.541      20615.723      1884062.3      1883990.9      1882799.2      1883617.5      251217.88      13.441222    
     36000   18             5008.3027     -51587.872      20715.318      1882742.5      1884311.5      1881652.5      1882902.2      251217.88      13.441222    
     36200   18.1           4981.7474     -51622.287      20605.481      1880521.8      1883228.9      1882700.5      1882150.4      251217.88      13.441222    
     36400   18.2           4974.351      -51401.819      20574.888      1883452.1      1883613.3      1886905        1884656.8      251217.88      13.441222    
     36600   18.3           4990.2503     -51530.856      20640.65       1883752.7      1884717.8      1882381.6      1883617.4      251217.88      13.441222    
     36800   18.4           5002.451      -51673.693      20691.115      1879112        1887273.2      1878941.5      1881775.5      251217.88      13.441222    
     37000   18.5           5026.6913     -51506.491      20791.377      1882594        1886631.2      1883990.6      1884405.2      251217.88      13.441222    
     37200   18.6           5014.4862     -51402.689      20740.895      1884586.9      1889027.5      1882962.5      1885525.7      251217.88      13.441222    
     37400   18.7           4989.3295     -51286.361      20636.841      1888692.1      1886677.3      1883766.3      1886378.6      251217.88      13.441222    
     37600   18.8           5017.1465     -51298.339      20751.898      1884063.6      1886451.4      1889059.5      1886524.8      251217.88      13.441222    
     37800   18.9           5009.3267     -51399.204      20719.554      1886220.6      1882081        1888030.8      1885444.1      251217.88      13.441222    
     38000   19             4999.0341     -51489.589      20676.982      1885901        1882238.8      1884047.3      1884062.4      251217.88      13.441222    
     38200   19.1           5007.6634     -51442.993      20712.674      1882588.6      1886511.3      1885164.8      1884754.9      251217.88      13.441222    
     38400   19.2           5001.517      -51442.211      20687.252      1888173.2      1885418.5      1881542.6      1885044.8      251217.88      13.441222    
     38600   19.3           4986.1585     -51429.473      20623.726      1881735.7      1888238.5      1883564.4      1884512.9      251217.88      13.441222    
     38800   19.4           4995.7834     -51456.787      20663.536      1881126.8      1884948.1      1887423.8      1884499.6      251217.88      13.441222    
     39000   19.5           4988.6277     -51698.739      20633.939      1880364.8      1881552.6      1882000.8      1881306.1      251217.88      13.441222    
     39200   19.6           5028.8674     -51526.748      20800.378      1881237.7      1888091.2      1883353.9      1884227.6      251217.88      13.441222    
     39400   19.7           5000.4084     -51546.482      20682.666      1883815.8      1879755.2      1886939.8      1883503.6      251217.88      13.441222    
     39600   19.8           4945.0614     -51561.411      20453.74       1884536.7      1881050.1      1881220.1      1882269        251217.88      13.441222    
     39800   19.9           4948.3013     -51305.273      20467.141      1884518.9      1885880        1885984.6      1885461.2      251217.88      13.441222    
     40000   20             4971.2893     -51574.192      20562.224      1883302.8      1884088.6      1880611.4      1882667.6      251217.88      13.441222    
     40200   20.1           4960.885      -51620.098      20519.19       1881599.3      1881621.8      1882622.3      1881947.8      251217.88      13.441222    
     40400   20.2           4990.9967     -51645.18       20643.738      1882348.5      1885376.5      1878732.9      1882152.6      251217.88      13.441222    
     40600   20.3           4937.7115     -51640.168      20423.339      1880553        1883592        1879120.6      1881088.5      251217.88      13.441222    
     40800   20.4           4950.4099     -51537.807      20475.863      1884232.1      1881506.7      1882127.6      1882622.1      251217.88      13.441222    
     41000   20.5           4990.1702     -51654.903      20640.319      1878672.6      1882461.1      1884890.7      1882008.2      251217.88      13.441222    
     41200   20.6           4996.3851     -51509.689      20666.025      1882422.2      1886255.8      1882756        1883811.4      251217.88      13.441222    
     41400   20.7           4990.3391     -51589.801      20641.017      1883121.5      1883075.8      1882357.7      1882851.7      251217.88      13.441222    
     41600   20.8           5000.5294     -51526.345      20683.167      1880541.9      1885591.9      1884742.4      1883625.4      251217.88      13.441222    
     41800   20.9           4986.4481     -51508.604      20624.924      1882441.6      1882514.3      1886339.4      1883765.1      251217.88      13.441222    
     42000   21             4999.9377     -51616.394      20680.719      1882237.2      1881538.4      1884025.1      1882600.2      251217.88      13.441222    
     42200   21.1           4959.2229     -51567.047      20512.315      1880504.1      1884164.2      1882975.6      1882548        251217.88      13.441222    
     42400   21.2           4998.595      -51588.812      20675.166      1883366.6      1884604.8      1881357.4      1883109.6      251217.88      13.441222    
     42600   21.3           4987.198      -51590.074      20628.025      1883628.7      1882234.2      1883733.6      1883198.8      251217.88      13.441222    
     42800   21.4           4999.126      -51580.245      20677.362      1886278.6      1881818.4      1881391        1883162.7      251217.88      13.441222    
     43000   21.5           5017.6092     -51499.915      20753.812      1884733.3      1883803.6      1884017.6      1884184.8      251217.88      13.441222    
     43200   21.6           5010.8807     -51490.728      20725.982      1882372.2      1888139.6      1883220        1884577.3      251217.88      13.441222    
     43400   21.7           5028.7291     -51386.296      20799.806      1889187.5      1883659.9      1884864.6      1885904        251217.88      13.441222    
     43600   21.8           5031.4315     -51434.638      20810.984      1883574.2      1885960.1      1886882.3      1885472.2      251217.88      13.441222    
     43800   21.9           5002.7918     -51314.421      20692.524      1883773.9      1887747.3      1887337.6      1886286.3      251217.88      13.441222    
     44000   22             4992.3787     -51499.336      20649.454      1882542.2      1886847.2      1882296.2      1883895.2      251217.88      13.441222    
     44200   22.1           4986.8076     -51440.049      20626.411      1885197.1      1884330.8      1884254.2      1884594        251217.88      13.441222    
     44400   22.2           5021.2516     -51446.896      20768.878      1887210.1      1883910.7      1883715.8      1884945.5      251217.88      13.441222    
     44600   22.3           5028.2352     -51541.673      20797.763      1880878.5      1881109.2      1889461.3      1883816.3      251217.88      13.441222    
     44800   22.4           5025.9132     -51340.747      20788.159      1883728.8      1888604        1886773.1      1886368.6      251217.88      13.441222    
     45000   22.5           5004.0729     -51385.983      20697.823      1883333.5      1887161.6      1884928.6      1885141.2      251217.88      13.441222    
     45200   22.6           5002.1423     -51185.02       20689.838      1885420.8      1886984.4      1890933.3      1887779.5      251217.88      13.441222    
     45400   22.7           5007.9828     -51308.964      20713.995      1886973.9      1887960.7      1884486.4      1886473.6      251217.88      13.441222    
     45600   22.8           4983.9954     -51234.139      20614.779      1886613.8      1883837.7      1890134.8      1886862.1      251217.88      13.441222    
     45800   22.9           5001.746      -51262.936      20688.199      1885531.7      1888454.8      1886817.9      1886934.8      251217.88      13.441222    
     46000   23             4981.8439     -51282.986      20605.88       1884370.5      1888413        1886397.1      1886393.5      251217.88      13.441222    
     46200   23.1           4961.8656     -51509.486      20523.246      1881068.7      1885318.5      1883309.5      1883232.3      251217.88      13.441222    
     46400   23.2           4985.2408     -51461.746      20619.93       1883644        1885928.1      1883278.3      1884283.5      251217.88      13.441222    
     46600   23.3           5020.7457     -51482.669      20766.785      1884592.4      1884898.9      1883948.9      1884480.1      251217.88      13.441222    
     46800   23.4           5022.5167     -51569.601      20774.11       1881609        1886009.5      1883426.2      1883681.6      251217.88      13.441222    
     47000   23.5           4997.8891     -51415.947      20672.246      1885193.4      1882396.4      1886937.4      1884842.4      251217.88      13.441222    
     47200   23.6           5007.5475     -51483.675      20712.195      1883531.3      1882744.9      1885632.8      1883969.7      251217.88      13.441222    
     47400   23.7           5007.0127     -51438.669      20709.983      1880785.2      1887532.3      1885347.7      1884555.1      251217.88      13.441222    
     47600   23.8           4991.5702     -51530.583      20646.11       1886090.7      1879285.2      1884899.3      1883425.1      251217.88      13.441222    
     47800   23.9           5028.6413     -51558.563      20799.443      1884031.7      1884771.6      1882330.9      1883711.4      251217.88      13.441222    
     48000   24             4955.3929     -51589.799      20496.473      1879165.1      1885027.5      1881443.4      1881878.7      251217.88      13.441222    
     48200   24.1           4997.9051     -51686.036      20672.312      1881634.2      1884623.7      1878498.8      1881585.6      251217.88      13.441222    
     48400   24.2           4971.8437     -51518.723      20564.517      1881882.2      1883531        1885078.7      1883497.3      251217.88      13.441222    
     48600   24.3           4967.3338     -51276.176      20545.863      1885915.6      1886131.2      1885970.6      1886005.8      251217.88      13.441222    
     48800   24.4           5010.6559     -51485.008      20725.052      1881764.8      1884686.8      1886320.7      1884257.4      251217.88      13.441222    
     49000   24.5           4991.5386     -51423.842      20645.979      1882456.8      1883099.4      1889146.2      1884900.8      251217.88      13.441222    
     49200   24.6           5003.8695     -51427.672      20696.982      1884803.1      1883671.3      1886193.7      1884889.4      251217.88      13.441222    
     49400   24.7           4983.7229     -51261.36       20613.652      1882438.7      1887306.6      1890116.4      1886620.5      251217.88      13.441222    
     49600   24.8           5003.3489     -51264.383      20694.829      1885850.3      1887238.3      1887155.9      1886748.2      251217.88      13.441222    
     49800   24.9           5029.805      -51288.58       20804.256      1885759.5      1888068.7      1887479.2      1887102.5      251217.88      13.441222    
     50000   25             5016.7174     -51459.89       20750.123      1881773.6      1885539.3      1886590.8      1884634.6      251217.88      13.441222    
Loop time of 68.381 on 1 procs for 50000 steps with 32000 atoms

Performance: 31.588 ns/day, 0.760 hours/ns, 731.197 timesteps/s, 23.398 Matom-step/s
99.8% CPU use with 1 MPI tasks x 1 OpenMP threads

MPI task timing breakdown:
Section |  min time  |  avg time  |  max time  |%varavg| %total
---------------------------------------------------------------
Pair    | 39.143     | 39.143     | 39.143     |   0.0 | 57.24
Neigh   | 0.30186    | 0.30186    | 0.30186    |   0.0 |  0.44
Comm    | 24.504     | 24.504     | 24.504     |   0.0 | 35.83
Output  | 0.12012    | 0.12012    | 0.12012    |   0.0 |  0.18
Modify  | 2.2306     | 2.2306     | 2.2306     |   0.0 |  3.26
Other   |            | 2.082      |            |       |  3.04

Nlocal:          32000 ave       32000 max       32000 min
Histogram: 1 0 0 0 0 0 0 0 0 0
Nghost:          30273 ave       30273 max       30273 min
Histogram: 1 0 0 0 0 0 0 0 0 0
Neighs:    4.12741e+06 ave 4.12741e+06 max 4.12741e+06 min
Histogram: 1 0 0 0 0 0 0 0 0 0

Total # of neighbors = 4127407
Ave neighs/atom = 128.98147
Neighbor list builds = 830
Dangerous builds = 0
Total wall time: 0:01:11
