LAMMPS (10 Sep 2025)
KOKKOS mode with Kokkos version 4.6.2 is enabled
  using double precision
  using view layout = legacy
  will use up to 1 GPU(s) per node
  using 1 OpenMP thread(s) per MPI task
package kokkos
package kokkos newton on neigh half comm device
dimension       3
units           metal
atom_style      atomic
boundary        p p p

# --- Create FCC Cu lattice ---
#lattice         fcc 3.52
#region          box block 0 20 0 20 0 20
#create_box      1 box
#create_atoms    1 box
#mass            1 63.546

read_data       ../../../eos/0.93V/Cu-0.93V.lmp
Reading data file ...
  orthogonal box = (0.84128 0.84128 0.84128) to (69.55872 69.55872 69.55872)
  1 by 1 by 1 MPI processor grid
  reading atoms ...
  32000 atoms
  reading velocities ...
  32000 velocities
  read_data CPU = 0.157 seconds
#change_box     all x scale _scale_ y scale _scale_ z scale _scale_ remap

neighbor        2.0 bin
neigh_modify    delay 0 every 1 check yes

pair_style      eam/alloy
pair_coeff      * * Cu-EAM-Z1622old.eam.alloy Cu

shell           "mkdir -p dumps"

variable	thold equal 500
variable	itemp equal 2*500
variable	runNVE equal 50000
variable	tstep equal 0.0005
variable	ph string 500K-0.93V

timestep        ${tstep}
timestep        0.0005
thermo          200
thermo_style    custom step time temp pe ke pxx pyy pzz press vol density
#thermo_modify	norm yes

dump        	RDUMP all custom 20000 dumps/${ph}-NV-500K-*.xyz id type x y z
dump        	RDUMP all custom 20000 dumps/500K-0.93V-NV-500K-*.xyz id type x y z

#NV  500K calculation
velocity 		all create ${itemp}  23796
velocity 		all create 1000  23796

fix 			LANG all langevin ${thold} ${thold} $(300.0*dt) 33948
fix 			LANG all langevin 500 ${thold} $(300.0*dt) 33948
fix 			LANG all langevin 500 500 $(300.0*dt) 33948
fix 			LANG all langevin 500 500 0.14999999999999999445 33948
fix 			NVE all nve
run  			${runNVE}
run  			50000
Neighbor list info ...
  update: every = 1 steps, delay = 0 steps, check = yes
  max neighbors/atom: 2000, page size: 100000
  master list distance cutoff = 7.859375
  ghost atom cutoff = 7.859375
  binsize = 7.859375, bins = 9 9 9
  1 neighbor lists, perpetual/occasional/extra = 1 0 0
  (1) pair eam/alloy/kk, perpetual
      attributes: half, newton on, kokkos_device
      pair build: half/bin/newton/kk/device
      stencil: half/bin/3d
      bin: kk/device
Per MPI rank memory allocation (min/avg/max) = 11.43 | 11.43 | 11.43 Mbytes
   Step          Time           Temp          PotEng         KinEng          Pxx            Pyy            Pzz           Press          Volume        Density    
         0   0              1000          -107938.87      4136.1954      296308.58      296228.22      296231.22      296256.01      324489.7       10.406109    
       200   0.1            534.24457     -106005.47      2209.7399      304539.89      304292.81      304291.26      304374.65      324489.7       10.406109    
       400   0.2            490.24706     -105855.41      2027.7576      305140.82      304975.23      305312.8       305142.95      324489.7       10.406109    
       600   0.3            500.38298     -105889.63      2069.6818      304915.25      304833.14      305128.94      304959.11      324489.7       10.406109    
       800   0.4            501.09831     -105898.83      2072.6405      304887.03      304882.14      304946.68      304905.28      324489.7       10.406109    
      1000   0.5            497.64543     -105907.87      2058.3587      304743.8       304653.03      304979.75      304792.19      324489.7       10.406109    
      1200   0.6            500.15929     -105897.83      2068.7565      304813.49      304870.3       304921.99      304868.6       324489.7       10.406109    
      1400   0.7            500.36319     -105909.02      2069.5999      304728.17      304714.15      304957.25      304799.86      324489.7       10.406109    
      1600   0.8            499.43104     -105900.14      2065.7444      304811.45      304800.63      304863.18      304825.09      324489.7       10.406109    
      1800   0.9            500.62837     -105901.44      2070.6967      304942.82      304778.54      304820.71      304847.36      324489.7       10.406109    
      2000   1              504.20663     -105895.93      2085.4971      305001.41      304885.08      304912.28      304932.92      324489.7       10.406109    
      2200   1.1            501.11833     -105892.25      2072.7233      304934.27      304993.63      304949.81      304959.23      324489.7       10.406109    
      2400   1.2            502.92947     -105885.32      2080.2146      305183.66      304995.41      304876.26      305018.44      324489.7       10.406109    
      2600   1.3            500.81856     -105900.97      2071.4834      305058.69      304774.56      304785.93      304873.06      324489.7       10.406109    
      2800   1.4            496.98002     -105892.34      2055.6065      304832.58      305129.68      304788.74      304917         324489.7       10.406109    
      3000   1.5            498.79875     -105910.4       2063.1291      304799.75      304872.52      304652.39      304774.89      324489.7       10.406109    
      3200   1.6            497.26722     -105902.09      2056.7944      304940.64      304940.73      304593.74      304825.04      324489.7       10.406109    
      3400   1.7            499.42673     -105897.7       2065.7265      305008.74      304711.56      304818.23      304846.18      324489.7       10.406109    
      3600   1.8            499.70796     -105897.69      2066.8897      304862.38      304926.03      304857.76      304882.06      324489.7       10.406109    
      3800   1.9            497.69765     -105905.09      2058.5747      304833.32      304694.21      304842.24      304789.92      324489.7       10.406109    
      4000   2              503.69728     -105895.3       2083.3904      305028.43      304955.59      304961.59      304981.87      324489.7       10.406109    
      4200   2.1            498.45944     -105896.26      2061.7256      304991.57      304862.21      304829.38      304894.39      324489.7       10.406109    
      4400   2.2            501.65305     -105917.46      2074.935       304749.6       304544.87      304781.94      304692.14      324489.7       10.406109    
      4600   2.3            500.52588     -105905.92      2070.2728      304884.74      304722.15      304802.44      304803.11      324489.7       10.406109    
      4800   2.4            499.85213     -105902.39      2067.4861      304789.47      304857.63      304893.71      304846.94      324489.7       10.406109    
      5000   2.5            500.07767     -105907.74      2068.419       304711.92      305000.42      304653.74      304788.69      324489.7       10.406109    
      5200   2.6            500.46698     -105891.31      2070.0292      304936.7       304701.08      305055.87      304897.88      324489.7       10.406109    
      5400   2.7            502.53548     -105895.22      2078.5849      304897.04      304966.95      304880.53      304914.84      324489.7       10.406109    
      5600   2.8            498.4667      -105888.28      2061.7556      304941.69      305023.19      304852.01      304938.97      324489.7       10.406109    
      5800   2.9            500.00982     -105888.19      2068.1383      305018.11      305070.02      304799.17      304962.43      324489.7       10.406109    
      6000   3              500.38529     -105906.92      2069.6913      304859.52      304766.53      304871.23      304832.43      324489.7       10.406109    
      6200   3.1            498.92818     -105898.52      2063.6644      304892.58      304948.09      304744.86      304861.84      324489.7       10.406109    
      6400   3.2            500.03301     -105902.48      2068.2342      304724.95      305071.45      304679.16      304825.19      324489.7       10.406109    
      6600   3.3            499.48427     -105905.86      2065.9645      304780.41      304843.6       304758.52      304794.18      324489.7       10.406109    
      6800   3.4            496.805       -105903.44      2054.8825      304852.65      304764.48      304639.58      304752.24      324489.7       10.406109    
      7000   3.5            497.58972     -105912.27      2058.1283      304868.17      304615.55      304783.77      304755.83      324489.7       10.406109    
      7200   3.6            498.83131     -105904.32      2063.2638      304763.18      304904.55      304842.86      304836.86      324489.7       10.406109    
      7400   3.7            499.09473     -105909.02      2064.3533      304939.25      304730.86      304725.31      304798.47      324489.7       10.406109    
      7600   3.8            500.36842     -105902.47      2069.6215      304993.45      304789.15      304868.68      304883.76      324489.7       10.406109    
      7800   3.9            498.94564     -105897.06      2063.7367      304958.84      304890.36      304864.24      304904.48      324489.7       10.406109    
      8000   4              501.51162     -105913.1       2074.35        304853.54      304783.11      304755.47      304797.37      324489.7       10.406109    
      8200   4.1            498.63287     -105889.72      2062.443       305130.27      304947.65      304723.28      304933.73      324489.7       10.406109    
      8400   4.2            502.14507     -105889.44      2076.9701      305041.62      305171.3       304734.84      304982.59      324489.7       10.406109    
      8600   4.3            499.91431     -105897.39      2067.7432      304916.68      305105.79      304726.61      304916.36      324489.7       10.406109    
      8800   4.4            501.6602      -105888.79      2074.9646      305001.2       304973.62      305008.43      304994.42      324489.7       10.406109    
      9000   4.5            503.32938     -105891.26      2081.8687      305137.68      304701.02      305187.72      305008.81      324489.7       10.406109    
      9200   4.6            500.1934      -105889.74      2068.8976      304930.83      304997.95      305005.58      304978.12      324489.7       10.406109    
      9400   4.7            499.64725     -105863.99      2066.6386      305083.21      305210.66      305147.86      305147.25      324489.7       10.406109    
      9600   4.8            499.93323     -105883.49      2067.8215      305013.25      304975.61      305127.94      305038.93      324489.7       10.406109    
      9800   4.9            500.38206     -105903.73      2069.6779      304985.43      304907.73      304759.16      304884.11      324489.7       10.406109    
     10000   5              498.84204     -105915.89      2063.3081      304962.16      304630.27      304581.97      304724.8       324489.7       10.406109    
     10200   5.1            497.26883     -105894.27      2056.801       304943.05      304681.46      304943.55      304856.02      324489.7       10.406109    
     10400   5.2            501.52597     -105912.22      2074.4094      304923.89      304706.9       304820.06      304816.95      324489.7       10.406109    
     10600   5.3            500.54503     -105888.94      2070.352       305213.04      304956.31      304724.03      304964.46      324489.7       10.406109    
     10800   5.4            501.34601     -105898.45      2073.665       304889.2       304822.82      304995.49      304902.5       324489.7       10.406109    
     11000   5.5            497.98333     -105912.68      2059.7564      304749.27      304917.11      304614.28      304760.22      324489.7       10.406109    
     11200   5.6            496.33994     -105896.34      2052.959       305033.74      305000.41      304659.96      304898.03      324489.7       10.406109    
     11400   5.7            494.83726     -105895.63      2046.7436      304726.12      304907.73      304875.46      304836.44      324489.7       10.406109    
     11600   5.8            499.71734     -105908.24      2066.9285      304922.74      304663.91      304813.88      304800.18      324489.7       10.406109    
     11800   5.9            498.76009     -105908.48      2062.9692      304846.2       304723.57      304837.47      304802.41      324489.7       10.406109    
     12000   6              497.30748     -105894.61      2056.9609      304845.5       305087.57      304689.87      304874.31      324489.7       10.406109    
     12200   6.1            499.80841     -105897.02      2067.3052      304926.88      304914.2       304883.76      304908.28      324489.7       10.406109    
     12400   6.2            504.92041     -105898.2       2088.4495      304932.73      304951.75      304996.65      304960.38      324489.7       10.406109    
     12600   6.3            502.47608     -105887.25      2078.3392      304970.97      304958.32      305062.32      304997.2       324489.7       10.406109    
     12800   6.4            503.01037     -105899.25      2080.5492      304856.98      304829.46      305074.08      304920.17      324489.7       10.406109    
     13000   6.5            502.86315     -105911.87      2079.9402      304740.96      304898.89      304818.82      304819.56      324489.7       10.406109    
     13200   6.6            501.09959     -105908.64      2072.6458      304771.85      304757.06      304819.73      304782.88      324489.7       10.406109    
     13400   6.7            501.60355     -105890.31      2074.7303      304928.31      305037.38      304957.2       304974.3       324489.7       10.406109    
     13600   6.8            499.92009     -105902.37      2067.7672      304882.37      304821.55      304802.68      304835.53      324489.7       10.406109    
     13800   6.9            498.80234     -105891.88      2063.1439      305065.89      304796.99      304915.68      304926.19      324489.7       10.406109    
     14000   7              502.73993     -105895.7       2079.4306      304890.93      305016.03      304936.86      304947.94      324489.7       10.406109    
     14200   7.1            503.57083     -105888.95      2082.8673      305125.39      304944.57      304847.55      304972.5       324489.7       10.406109    
     14400   7.2            500.20943     -105908.7       2068.9639      304725.04      304623.35      304850.98      304733.12      324489.7       10.406109    
     14600   7.3            496.40428     -105906.71      2053.2251      304834.18      305022.9       304476.97      304778.02      324489.7       10.406109    
     14800   7.4            499.47648     -105886.13      2065.9323      304817.95      305177.92      304974.62      304990.16      324489.7       10.406109    
     15000   7.5            500.65288     -105907.8       2070.7981      304816.35      304795.59      304795.59      304802.51      324489.7       10.406109    
     15200   7.6            499.32201     -105902.59      2065.2934      305001.42      304845.2       304693.54      304846.72      324489.7       10.406109    
     15400   7.7            503.42483     -105899.71      2082.2635      304825.72      305040.52      304904.88      304923.71      324489.7       10.406109    
     15600   7.8            504.16092     -105890.58      2085.3081      305100.54      305072.56      304898.35      305023.82      324489.7       10.406109    
     15800   7.9            500.65672     -105890.04      2070.814       304903.04      304906.48      305084.02      304964.51      324489.7       10.406109    
     16000   8              504.77409     -105906.66      2087.8443      304981.48      304739.52      304980.15      304900.38      324489.7       10.406109    
     16200   8.1            501.25054     -105888.89      2073.2702      304905.73      304897.03      305226.77      305009.84      324489.7       10.406109    
     16400   8.2            503.64011     -105879.63      2083.1539      305139.64      304950.09      305248.65      305112.8       324489.7       10.406109    
     16600   8.3            503.85247     -105907.05      2084.0322      304783.95      304895.87      305034.01      304904.61      324489.7       10.406109    
     16800   8.4            498.57994     -105866.68      2062.224       305317.68      304970.25      305159.12      305149.02      324489.7       10.406109    
     17000   8.5            506.30305     -105898.05      2094.1683      304810.39      305142.07      304834.33      304928.93      324489.7       10.406109    
     17200   8.6            501.87653     -105893.91      2075.8594      304959.09      304894.53      304907.36      304920.33      324489.7       10.406109    
     17400   8.7            503.43577     -105895.26      2082.3087      305113.38      304828.47      304944.38      304962.07      324489.7       10.406109    
     17600   8.8            504.31387     -105917.56      2085.9407      304741.88      304770.02      304830.52      304780.81      324489.7       10.406109    
     17800   8.9            498.95769     -105891.28      2063.7865      304996.03      304919.84      304815.31      304910.39      324489.7       10.406109    
     18000   9              504.71148     -105901.37      2087.5853      304995.56      304847.21      304864.72      304902.49      324489.7       10.406109    
     18200   9.1            499.20343     -105892.81      2064.8029      304985.16      304888.11      304873.03      304915.43      324489.7       10.406109    
     18400   9.2            502.85567     -105902.64      2079.9093      304950.82      304965.77      304887.38      304934.66      324489.7       10.406109    
     18600   9.3            498.72402     -105898.17      2062.82        304870.05      304806.56      304969.35      304881.98      324489.7       10.406109    
     18800   9.4            499.15153     -105905.87      2064.5883      304523.56      305013.47      304845.6       304794.21      324489.7       10.406109    
     19000   9.5            500.46203     -105923.85      2070.0087      304617.86      304674.87      304643.6       304645.45      324489.7       10.406109    
     19200   9.6            497.0709      -105890.51      2055.9824      304706.19      305109.61      304916.43      304910.74      324489.7       10.406109    
     19400   9.7            499.59767     -105904.98      2066.4336      304839.57      304808.48      304827.33      304825.13      324489.7       10.406109    
     19600   9.8            498.32834     -105893.72      2061.1834      304769.95      304957.81      304852.55      304860.1       324489.7       10.406109    
     19800   9.9            498.74082     -105902.87      2062.8895      304857.67      304895.18      304724.3       304825.72      324489.7       10.406109    
     20000   10             500.33537     -105900.81      2069.4848      304798.23      304897.09      304913.87      304869.73      324489.7       10.406109    
     20200   10.1           500.32252     -105891.81      2069.4317      304977.5       304946.44      305003.6       304975.85      324489.7       10.406109    
     20400   10.2           498.75258     -105902.99      2062.9381      304975.57      304713.44      304906.26      304865.09      324489.7       10.406109    
     20600   10.3           499.75823     -105903.51      2067.0977      304703.07      304963.88      304767.65      304811.53      324489.7       10.406109    
     20800   10.4           499.10162     -105896.71      2064.3818      304942.66      304809.58      305035.34      304929.2       324489.7       10.406109    
     21000   10.5           499.38371     -105907.14      2065.5486      304744.82      304683.37      305084.86      304837.68      324489.7       10.406109    
     21200   10.6           497.58399     -105912.09      2058.1046      304738.95      304759.39      304796.29      304764.87      324489.7       10.406109    
     21400   10.7           496.91489     -105906.19      2055.3371      304834.8       304990.47      304599.95      304808.4       324489.7       10.406109    
     21600   10.8           496.594       -105907.72      2054.0098      304785.41      304791.62      304828.64      304801.89      324489.7       10.406109    
     21800   10.9           499.43942     -105918.5       2065.779       304664.15      304724.55      304815.38      304734.69      324489.7       10.406109    
     22000   11             500.81711     -105901.74      2071.4774      304714.47      304741.06      305119.81      304858.45      324489.7       10.406109    
     22200   11.1           501.74782     -105899.33      2075.327       304883.58      304959.35      304764.62      304869.18      324489.7       10.406109    
     22400   11.2           499.65043     -105897.28      2066.6518      304948.58      304742.52      305053.64      304914.92      324489.7       10.406109    
     22600   11.3           497.64582     -105903.04      2058.3603      305115.92      304615.35      304879.29      304870.19      324489.7       10.406109    
     22800   11.4           502.43242     -105912.91      2078.1587      304760.6       304677.4       304854.8       304764.26      324489.7       10.406109    
     23000   11.5           499.42172     -105899.54      2065.7058      304872.37      304980.05      304812.27      304888.23      324489.7       10.406109    
     23200   11.6           493.81888     -105892.44      2042.5314      305013.2       304862.1       304728.94      304868.08      324489.7       10.406109    
     23400   11.7           497.89335     -105920.02      2059.3842      304582.87      304959.17      304521.18      304687.74      324489.7       10.406109    
     23600   11.8           497.04313     -105904.25      2055.8675      304932.89      304636.73      304779.7       304783.11      324489.7       10.406109    
     23800   11.9           500.95381     -105910.96      2072.0428      304630.47      304860.05      304928.43      304806.31      324489.7       10.406109    
     24000   12             498.90958     -105908.88      2063.5875      304752.62      304751.13      304749.82      304751.19      324489.7       10.406109    
     24200   12.1           499.35306     -105897.63      2065.4218      305017.58      304890.59      304805.1       304904.42      324489.7       10.406109    
     24400   12.2           501.86829     -105893.83      2075.8253      305012.66      304984.8       304914.69      304970.72      324489.7       10.406109    
     24600   12.3           503.19302     -105897.81      2081.3047      304923.75      304979.93      304880.77      304928.15      324489.7       10.406109    
     24800   12.4           497.63358     -105912.08      2058.3097      304914.06      304682.39      304520.54      304705.67      324489.7       10.406109    
     25000   12.5           498.86888     -105901.2       2063.4191      304901.99      304757.79      304908.24      304856.01      324489.7       10.406109    
     25200   12.6           501.43128     -105900.21      2074.0177      304873.1       304833.87      304919.87      304875.61      324489.7       10.406109    
     25400   12.7           496.85294     -105900.4       2055.0809      304803.31      304716.42      304990.84      304836.86      324489.7       10.406109    
     25600   12.8           498.2843      -105906.81      2061.0012      304950.65      304594.81      304800.69      304782.05      324489.7       10.406109    
     25800   12.9           500.72431     -105886.6       2071.0936      305059.72      304940.67      304981.48      304993.96      324489.7       10.406109    
     26000   13             501.59559     -105897.7       2074.6974      304946.4       304747.14      305089.34      304927.63      324489.7       10.406109    
     26200   13.1           499.30595     -105884.44      2065.227       305127.81      305071.65      304900.55      305033.34      324489.7       10.406109    
     26400   13.2           499.96293     -105889.75      2067.9444      304930.92      304947.95      304886.77      304921.88      324489.7       10.406109    
     26600   13.3           498.36007     -105897.39      2061.3146      305146.65      304679.28      304792.46      304872.79      324489.7       10.406109    
     26800   13.4           497.77893     -105892.63      2058.9109      304870.42      305113.06      304727.35      304903.61      324489.7       10.406109    
     27000   13.5           499.02413     -105904.45      2064.0613      304538.41      305040.2       304902.84      304827.15      324489.7       10.406109    
     27200   13.6           499.53198     -105898.38      2066.1619      304962.69      304980.18      304654.43      304865.76      324489.7       10.406109    
     27400   13.7           497.29929     -105912.52      2056.927       304891.45      304644.21      304687.04      304740.9       324489.7       10.406109    
     27600   13.8           495.80554     -105908.65      2050.7486      304905.89      304585.11      304663.2       304718.07      324489.7       10.406109    
     27800   13.9           499.06567     -105914.83      2064.2331      304578.98      304803.66      304864.73      304749.12      324489.7       10.406109    
     28000   14             499.60684     -105913.18      2066.4715      304580.37      304668.96      304968.38      304739.24      324489.7       10.406109    
     28200   14.1           500.07846     -105901.05      2068.4222      304977.89      304815.1       304721.25      304838.08      324489.7       10.406109    
     28400   14.2           496.90378     -105895.07      2055.2911      304615.7       304842.3       305052.38      304836.79      324489.7       10.406109    
     28600   14.3           498.8023      -105887.05      2063.1438      305074.4       304973.47      304902.83      304983.57      324489.7       10.406109    
     28800   14.4           499.36329     -105896.18      2065.4641      305122.31      304683.57      304789.09      304864.99      324489.7       10.406109    
     29000   14.5           501.42838     -105906.61      2074.0057      305073.19      304727.36      304762.44      304854.33      324489.7       10.406109    
     29200   14.6           501.98058     -105909.17      2076.2898      304718.04      304849.12      304906.87      304824.67      324489.7       10.406109    
     29400   14.7           498.05494     -105897         2060.0525      304797.26      304838.78      304928.86      304854.97      324489.7       10.406109    
     29600   14.8           496.23974     -105897.33      2052.5445      304600.05      304956.18      304911.53      304822.59      324489.7       10.406109    
     29800   14.9           502.70805     -105896.79      2079.2987      304925.72      305113.31      304866.72      304968.58      324489.7       10.406109    
     30000   15             497.40941     -105892.38      2057.3825      304780.03      304990.65      304966.11      304912.26      324489.7       10.406109    
     30200   15.1           504.86552     -105909.01      2088.2224      304797.61      304699.61      305032.28      304843.17      324489.7       10.406109    
     30400   15.2           500.55726     -105896.78      2070.4026      305150.93      304456.31      305033.71      304880.31      324489.7       10.406109    
     30600   15.3           500.08466     -105908.61      2068.4479      304819.8       304695         304824.1       304779.63      324489.7       10.406109    
     30800   15.4           498.66143     -105897.85      2062.5611      304987.9       304810.35      304799.64      304865.96      324489.7       10.406109    
     31000   15.5           493.80751     -105888.51      2042.4843      304902.53      305018.3       304785.7       304902.18      324489.7       10.406109    
     31200   15.6           496.30258     -105898.93      2052.8044      304823.13      304948.01      304687.37      304819.5       324489.7       10.406109    
     31400   15.7           499.88946     -105894.5       2067.6405      304876.53      304993.33      304871.4       304913.75      324489.7       10.406109    
     31600   15.8           500.37351     -105895         2069.6426      304811.6       304918.71      304943.25      304891.19      324489.7       10.406109    
     31800   15.9           500.03028     -105901.25      2068.2229      304510.8       305091.77      304909.46      304837.34      324489.7       10.406109    
     32000   16             503.75594     -105898.06      2083.633       305070.46      304859.71      304803.62      304911.26      324489.7       10.406109    
     32200   16.1           504.01319     -105906.55      2084.697       304760.23      304970.34      304931.1       304887.22      324489.7       10.406109    
     32400   16.2           499.32706     -105900.52      2065.3143      304617.27      304845.54      305039.51      304834.11      324489.7       10.406109    
     32600   16.3           498.43066     -105905.76      2061.6066      304753.89      304981.57      304623.79      304786.42      324489.7       10.406109    
     32800   16.4           498.95555     -105902.59      2063.7776      304870.28      304903.23      304703.48      304825.66      324489.7       10.406109    
     33000   16.5           500.82941     -105899.05      2071.5283      304720.74      305111.99      304761.12      304864.61      324489.7       10.406109    
     33200   16.6           497.56428     -105903.55      2058.0231      305008.36      304740.7       304693.12      304814.06      324489.7       10.406109    
     33400   16.7           500.20652     -105902.57      2068.9519      304943.9       304760.63      304845.76      304850.1       324489.7       10.406109    
     33600   16.8           498.85685     -105901.77      2063.3694      304771.77      305014.69      304826.05      304870.84      324489.7       10.406109    
     33800   16.9           502.59442     -105902.21      2078.8287      304890.07      304988.15      304827.17      304901.8       324489.7       10.406109    
     34000   17             500.51887     -105896.7       2070.2438      304737.15      304948.28      305004.95      304896.79      324489.7       10.406109    
     34200   17.1           500.59979     -105912.46      2070.5785      304856.68      304673.32      304758.05      304762.68      324489.7       10.406109    
     34400   17.2           502.83246     -105902.5       2079.8133      305087.42      304852.86      304726.59      304888.95      324489.7       10.406109    
     34600   17.3           498.33174     -105896.13      2061.1974      305127.65      304748.18      304830.71      304902.18      324489.7       10.406109    
     34800   17.4           496.65737     -105899.37      2054.2719      304718.44      304994.66      304721.46      304811.52      324489.7       10.406109    
     35000   17.5           502.03518     -105919.18      2076.5156      304724.44      304596.52      304873.28      304731.42      324489.7       10.406109    
     35200   17.6           501.19201     -105900.76      2073.0281      305028.03      304784.88      305103.44      304972.12      324489.7       10.406109    
     35400   17.7           500.65085     -105885.67      2070.7897      304962.01      305023.57      305038.82      305008.14      324489.7       10.406109    
     35600   17.8           501.63381     -105897.14      2074.8555      304936.99      305003.03      304880.2       304940.07      324489.7       10.406109    
     35800   17.9           501.74248     -105890.23      2075.3049      305043.37      304921.83      304954.55      304973.25      324489.7       10.406109    
     36000   18             499.83747     -105899.21      2067.4254      304793.88      305005.99      304925.56      304908.48      324489.7       10.406109    
     36200   18.1           499.77856     -105912.97      2067.1818      304587.89      304724.49      304809.88      304707.42      324489.7       10.406109    
     36400   18.2           499.42874     -105906.95      2065.7349      304625.65      304703.48      304950.61      304759.91      324489.7       10.406109    
     36600   18.3           499.95242     -105908.89      2067.9009      304875.13      304741.95      304757.37      304791.48      324489.7       10.406109    
     36800   18.4           498.68044     -105898.26      2062.6397      304878.7       304840.45      304718.2       304812.45      324489.7       10.406109    
     37000   18.5           503.86437     -105894.62      2084.0815      304956.3       305001.7       304959.4       304972.47      324489.7       10.406109    
     37200   18.6           504.08929     -105898.44      2085.0118      304714.89      304847.62      305167.34      304909.95      324489.7       10.406109    
     37400   18.7           504.38523     -105913.37      2086.2359      304924.2       304825.92      304730.37      304826.83      324489.7       10.406109    
     37600   18.8           499.37444     -105904.89      2065.5103      304916.33      305024.27      304593.82      304844.8       324489.7       10.406109    
     37800   18.9           497.51495     -105893.3       2057.819       305035.87      305018.46      304785.13      304946.49      324489.7       10.406109    
     38000   19             499.84415     -105890.81      2067.4531      304791.33      304972.76      305157.33      304973.81      324489.7       10.406109    
     38200   19.1           497.4234      -105880.03      2057.4404      304738.44      305022.93      305156.25      304972.54      324489.7       10.406109    
     38400   19.2           505.88032     -105907.84      2092.4198      304763.92      305135.45      304733.38      304877.58      324489.7       10.406109    
     38600   19.3           499.03718     -105880.55      2064.1153      304805.58      305039.55      305140.23      304995.12      324489.7       10.406109    
     38800   19.4           500.78306     -105890.38      2071.3366      305081.76      304920.93      304935.09      304979.26      324489.7       10.406109    
     39000   19.5           499.0857      -105897.22      2064.316       304644.17      304973.53      305116.74      304911.48      324489.7       10.406109    
     39200   19.6           499.58982     -105894.71      2066.4011      304797.02      304838.02      305041.56      304892.2       324489.7       10.406109    
     39400   19.7           502.79432     -105898.23      2079.6555      305004.07      304803.78      305013.2       304940.35      324489.7       10.406109    
     39600   19.8           499.54326     -105901.42      2066.2085      305107.07      304870.42      304685.62      304887.7       324489.7       10.406109    
     39800   19.9           499.03857     -105896.59      2064.121       304990.16      304816.52      304914.73      304907.14      324489.7       10.406109    
     40000   20             499.49515     -105918.56      2066.0095      304877.42      304611.02      304695.33      304727.93      324489.7       10.406109    
     40200   20.1           499.93967     -105908.37      2067.8482      304917.79      304755.29      304800.38      304824.49      324489.7       10.406109    
     40400   20.2           499.34282     -105911.95      2065.3794      304811.49      304742.88      304797.27      304783.88      324489.7       10.406109    
     40600   20.3           498.40197     -105898.8       2061.4879      304719.99      304880.98      304970.71      304857.23      324489.7       10.406109    
     40800   20.4           499.18941     -105903.27      2064.7449      304927.51      304879.63      304754.79      304853.97      324489.7       10.406109    
     41000   20.5           500.12074     -105902.59      2068.5971      304656.11      304863.93      305051.01      304857.02      324489.7       10.406109    
     41200   20.6           503.26182     -105892.9       2081.5892      304889.48      305197.31      304902.65      304996.48      324489.7       10.406109    
     41400   20.7           502.1241      -105881.21      2076.8834      305250.68      305009.57      304934.26      305064.84      324489.7       10.406109    
     41600   20.8           501.7009      -105894.83      2075.1329      304878.58      304971.92      304892.47      304914.33      324489.7       10.406109    
     41800   20.9           502.53977     -105888.27      2078.6027      304683.1       305115.53      305108.13      304968.92      324489.7       10.406109    
     42000   21             499.08289     -105887.66      2064.3044      304756.04      304980.74      305116.16      304950.98      324489.7       10.406109    
     42200   21.1           501.04782     -105896.11      2072.4317      305085.35      304834.87      304716.47      304878.9       324489.7       10.406109    
     42400   21.2           496.66725     -105891.03      2054.3128      305210.17      304721.46      304814.45      304915.36      324489.7       10.406109    
     42600   21.3           496.34269     -105889.4       2052.9703      304788.64      304980.32      305088.62      304952.52      324489.7       10.406109    
     42800   21.4           499.55136     -105898.77      2066.242       304806.6       304948.41      304872.63      304875.88      324489.7       10.406109    
     43000   21.5           500.20547     -105897.62      2068.9476      305006.26      304882.25      304837.91      304908.8       324489.7       10.406109    
     43200   21.6           499.4991      -105905.58      2066.0259      304964.6       304737.14      304720.59      304807.44      324489.7       10.406109    
     43400   21.7           499.48371     -105904.7       2065.9622      304820.11      304734.45      304785.69      304780.08      324489.7       10.406109    
     43600   21.8           500.04958     -105889.15      2068.3027      304991.06      304918.89      304926.37      304945.44      324489.7       10.406109    
     43800   21.9           502.19282     -105891.31      2077.1676      305055.06      305095.29      304746.98      304965.78      324489.7       10.406109    
     44000   22             499.85367     -105886.6       2067.4924      305024.48      304885.51      304996.75      304968.91      324489.7       10.406109    
     44200   22.1           502.75673     -105901.57      2079.5001      304693.4       305013.18      304828.25      304844.94      324489.7       10.406109    
     44400   22.2           499.78195     -105903.14      2067.1958      304780.1       304784.92      304921.76      304828.93      324489.7       10.406109    
     44600   22.3           497.00062     -105903.71      2055.6917      304710.38      304794.28      304911.8       304805.48      324489.7       10.406109    
     44800   22.4           499.80895     -105895.88      2067.3075      304933.23      305010.12      304792.91      304912.08      324489.7       10.406109    
     45000   22.5           498.59389     -105903.25      2062.2817      304820.19      304785.5       304869.13      304824.94      324489.7       10.406109    
     45200   22.6           498.94417     -105909.42      2063.7306      304925.37      304687.72      304780.83      304797.97      324489.7       10.406109    
     45400   22.7           498.43348     -105908.04      2061.6182      304858.91      304707.26      304686.88      304751.01      324489.7       10.406109    
     45600   22.8           499.55224     -105917.78      2066.2457      304856.04      304592.37      304623.47      304690.63      324489.7       10.406109    
     45800   22.9           493.69643     -105904.59      2042.0249      304834.51      304578.29      304757.5       304723.44      324489.7       10.406109    
     46000   23             497.82093     -105898.11      2059.0846      304982.63      304890.63      304697.93      304857.07      324489.7       10.406109    
     46200   23.1           498.44173     -105901.89      2061.6524      305189.65      304506.3       304808.82      304834.93      324489.7       10.406109    
     46400   23.2           496.88895     -105903.69      2055.2298      304801.71      304916.17      304682.48      304800.12      324489.7       10.406109    
     46600   23.3           498.57818     -105919.21      2062.2168      304597.12      304694.1       304850.16      304713.79      324489.7       10.406109    
     46800   23.4           497.05329     -105908.59      2055.9095      304884.05      304919.68      304562.87      304788.87      324489.7       10.406109    
     47000   23.5           501.64304     -105896.07      2074.8936      304934.43      304832.8       305031.29      304932.84      324489.7       10.406109    
     47200   23.6           498.1297      -105882.49      2060.3618      304720.14      305108.46      305185.99      305004.86      324489.7       10.406109    
     47400   23.7           501.78462     -105892.43      2075.4792      304859.82      305103.71      304971.59      304978.37      324489.7       10.406109    
     47600   23.8           502.19667     -105907.05      2077.1836      304919.11      304852.54      304861.82      304877.82      324489.7       10.406109    
     47800   23.9           501.86178     -105907.91      2075.7984      305030.01      304711.63      304762.18      304834.61      324489.7       10.406109    
     48000   24             496.46753     -105905.81      2053.4867      304712.56      304918.54      304761.01      304797.37      324489.7       10.406109    
     48200   24.1           500.55896     -105903.33      2070.4097      304802.3       304840.27      304894.04      304845.53      324489.7       10.406109    
     48400   24.2           500.18449     -105907.17      2068.8608      304880.23      304718.44      304849.38      304816.02      324489.7       10.406109    
     48600   24.3           499.62704     -105891.12      2066.555       304926.36      304933.55      305012.91      304957.61      324489.7       10.406109    
     48800   24.4           505.38773     -105912.59      2090.3824      304654.1       304848.2       304973.34      304825.21      324489.7       10.406109    
     49000   24.5           499.95326     -105899.8       2067.9043      304855.89      304866.84      304924.77      304882.5       324489.7       10.406109    
     49200   24.6           503.21214     -105898.64      2081.3837      304851.39      305083.08      304824.28      304919.58      324489.7       10.406109    
     49400   24.7           503.02833     -105891.24      2080.6235      305020.49      304844.45      305102.73      304989.22      324489.7       10.406109    
     49600   24.8           503.74561     -105887.65      2083.5903      304985.8       304888.56      305099.6       304991.32      324489.7       10.406109    
     49800   24.9           503.54116     -105895.34      2082.7446      305012.55      304911.24      304963.32      304962.37      324489.7       10.406109    
     50000   25             501.34771     -105893.04      2073.6721      305072.87      304946.04      304839.37      304952.76      324489.7       10.406109    
Loop time of 44.3254 on 1 procs for 50000 steps with 32000 atoms

Performance: 48.731 ns/day, 0.493 hours/ns, 1128.023 timesteps/s, 36.097 Matom-step/s
99.8% CPU use with 1 MPI tasks x 1 OpenMP threads

MPI task timing breakdown:
Section |  min time  |  avg time  |  max time  |%varavg| %total
---------------------------------------------------------------
Pair    | 27.739     | 27.739     | 27.739     |   0.0 | 62.58
Neigh   | 0          | 0          | 0          |   0.0 |  0.00
Comm    | 12.707     | 12.707     | 12.707     |   0.0 | 28.67
Output  | 0.11773    | 0.11773    | 0.11773    |   0.0 |  0.27
Modify  | 1.781      | 1.781      | 1.781      |   0.0 |  4.02
Other   |            | 1.98       |            |       |  4.47

Nlocal:          32000 ave       32000 max       32000 min
Histogram: 1 0 0 0 0 0 0 0 0 0
Nghost:          26825 ave       26825 max       26825 min
Histogram: 1 0 0 0 0 0 0 0 0 0
Neighs:        3.2e+06 ave     3.2e+06 max     3.2e+06 min
Histogram: 1 0 0 0 0 0 0 0 0 0

Total # of neighbors = 3200000
Ave neighs/atom = 100
Neighbor list builds = 0
Dangerous builds = 0
Total wall time: 0:00:46
