LAMMPS (10 Sep 2025)
KOKKOS mode with Kokkos version 4.6.2 is enabled
  using double precision
  using view layout = legacy
  will use up to 1 GPU(s) per node
  using 1 OpenMP thread(s) per MPI task
package kokkos
package kokkos newton on neigh half comm device
dimension       3
units           metal
atom_style      atomic
boundary        p p p

# --- Create FCC Cu lattice ---
#lattice         fcc 3.52
#region          box block 0 20 0 20 0 20
#create_box      1 box
#create_atoms    1 box
#mass            1 63.546

read_data       ../../../eos/0.69V/Cu-0.69V.lmp
Reading data file ...
  orthogonal box = (4.0953088 4.0953088 4.0953088) to (66.304691 66.304691 66.304691)
  1 by 1 by 1 MPI processor grid
  reading atoms ...
  32000 atoms
  reading velocities ...
  32000 velocities
  read_data CPU = 0.155 seconds
#change_box     all x scale _scale_ y scale _scale_ z scale _scale_ remap

neighbor        2.0 bin
neigh_modify    delay 0 every 1 check yes

pair_style      eam/alloy
pair_coeff      * * Cu-EAM-Z1622old.eam.alloy Cu

shell           "mkdir -p dumps"

variable	thold equal 6000
variable	itemp equal 2*6000
variable	runNVE equal 50000
variable	tstep equal 0.0005
variable	ph string 6000K-0.69V

timestep        ${tstep}
timestep        0.0005
thermo          200
thermo_style    custom step time temp pe ke pxx pyy pzz press vol density
#thermo_modify	norm yes

dump        	RDUMP all custom 20000 dumps/${ph}-NV-6000K-*.xyz id type x y z
dump        	RDUMP all custom 20000 dumps/6000K-0.69V-NV-6000K-*.xyz id type x y z

#NV  6000K calculation
velocity 		all create ${itemp}  23796
velocity 		all create 12000  23796

fix 			LANG all langevin ${thold} ${thold} $(300.0*dt) 33948
fix 			LANG all langevin 6000 ${thold} $(300.0*dt) 33948
fix 			LANG all langevin 6000 6000 $(300.0*dt) 33948
fix 			LANG all langevin 6000 6000 0.14999999999999999445 33948
fix 			NVE all nve
run  			${runNVE}
run  			50000
Neighbor list info ...
  update: every = 1 steps, delay = 0 steps, check = yes
  max neighbors/atom: 2000, page size: 100000
  master list distance cutoff = 7.859375
  ghost atom cutoff = 7.859375
  binsize = 7.859375, bins = 8 8 8
  1 neighbor lists, perpetual/occasional/extra = 1 0 0
  (1) pair eam/alloy/kk, perpetual
      attributes: half, newton on, kokkos_device
      pair build: half/bin/newton/kk/device
      stencil: half/bin/3d
      bin: kk/device
Per MPI rank memory allocation (min/avg/max) = 12.95 | 12.95 | 12.95 Mbytes
   Step          Time           Temp          PotEng         KinEng          Pxx            Pyy            Pzz           Press          Volume        Density    
         0   0              12000         -62158.795      49634.345      2068255.7      2066956        2067004.5      2067405.4      240750.76      14.025606    
       200   0.1            5805.9392     -36027.814      24014.499      2322677.4      2331329.6      2328649.8      2327552.3      240750.76      14.025606    
       400   0.2            5893.0279     -35740.605      24374.715      2328018.6      2337899        2334026.9      2333314.8      240750.76      14.025606    
       600   0.3            5968.5124     -35713.267      24686.933      2333054        2334148.1      2336597        2334599.7      240750.76      14.025606    
       800   0.4            5918.8075     -35407.812      24481.344      2335357.3      2338681.3      2339343.8      2337794.1      240750.76      14.025606    
      1000   0.5            5972.9517     -35502.772      24705.295      2339955.5      2335071.3      2336615        2337214        240750.76      14.025606    
      1200   0.6            5994.3668     -35120.998      24793.872      2344477.6      2343701.8      2339553        2342577.5      240750.76      14.025606    
      1400   0.7            5948.1921     -34984.476      24602.885      2343675.3      2341833.1      2345393.8      2343634.1      240750.76      14.025606    
      1600   0.8            5928.6246     -34971.448      24521.95       2339123.7      2345428.1      2345123        2343225        240750.76      14.025606    
      1800   0.9            5949.1267     -34936.835      24606.75       2343164        2343588.3      2344378.2      2343710.2      240750.76      14.025606    
      2000   1              5965.1111     -34557.626      24672.865      2350160.4      2347668.8      2349064.3      2348964.5      240750.76      14.025606    
      2200   1.1            5974.5321     -34262.841      24711.832      2353219.4      2350648.6      2354785        2352884.3      240750.76      14.025606    
      2400   1.2            5999.3025     -34257.812      24814.287      2353981.7      2357858.7      2348101.6      2353314        240750.76      14.025606    
      2600   1.3            5956.8386     -33739.511      24638.648      2355155.8      2363131.4      2357592.1      2358626.4      240750.76      14.025606    
      2800   1.4            5948.153      -33494.397      24602.723      2361275.7      2359395.7      2363923.5      2361531.7      240750.76      14.025606    
      3000   1.5            5878.9315     -33158.958      24316.409      2361459        2367673.1      2365220.3      2364784.1      240750.76      14.025606    
      3200   1.6            5937.2687     -32942.825      24557.704      2369350.5      2368910.7      2365971.5      2368077.6      240750.76      14.025606    
      3400   1.7            5883.6396     -32488.763      24335.883      2371597.7      2372720.9      2374045.5      2372788        240750.76      14.025606    
      3600   1.8            5884.4679     -31916.736      24339.309      2377891.7      2382852.9      2378594.1      2379779.6      240750.76      14.025606    
      3800   1.9            5886.0034     -31223.453      24345.66       2389174.9      2391049        2384043        2388089        240750.76      14.025606    
      4000   2              5933.0108     -30708.956      24540.092      2397935.9      2395941.7      2392089.7      2395322.4      240750.76      14.025606    
      4200   2.1            5950.9435     -30363.069      24614.265      2394528.5      2405219.8      2399165        2399637.8      240750.76      14.025606    
      4400   2.2            5966.5689     -30078.068      24678.895      2401047.1      2404849.6      2405449        2403781.9      240750.76      14.025606    
      4600   2.3            5894.0369     -29185.072      24378.888      2412866.5      2411691.9      2415246.5      2413268.3      240750.76      14.025606    
      4800   2.4            5906.1547     -28857.977      24429.01       2420644.9      2417823.8      2412499.8      2416989.5      240750.76      14.025606    
      5000   2.5            5928.8197     -28700.386      24522.757      2416921        2422994        2418803.9      2419573        240750.76      14.025606    
      5200   2.6            5950.5898     -28414.562      24612.802      2425831        2427138.9      2417493.1      2423487.7      240750.76      14.025606    
      5400   2.7            5986.9971     -28109.595      24763.39       2421926.5      2435661.2      2426125.7      2427904.5      240750.76      14.025606    
      5600   2.8            5926.9346     -27693.552      24514.96       2432655.4      2434367.2      2429137.9      2432053.5      240750.76      14.025606    
      5800   2.9            5974.7536     -27591.539      24712.748      2430901.8      2436452.5      2434751.1      2434035.1      240750.76      14.025606    
      6000   3              5948.4529     -27765.419      24603.964      2433019.8      2432032.3      2428604.2      2431218.7      240750.76      14.025606    
      6200   3.1            5966.967      -27484.996      24680.542      2434514.8      2430492        2440630.8      2435212.6      240750.76      14.025606    
      6400   3.2            6036.7205     -27600.611      24969.055      2434365.1      2436086.9      2433799.7      2434750.5      240750.76      14.025606    
      6600   3.3            5996.6394     -27666.887      24803.272      2431514.6      2430464.4      2438381.4      2433453.5      240750.76      14.025606    
      6800   3.4            6010.0472     -27677.097      24858.729      2434721.6      2435219.3      2431338.5      2433759.8      240750.76      14.025606    
      7000   3.5            5993.0189     -27514.229      24788.297      2436872.2      2434369.5      2434239.5      2435160.4      240750.76      14.025606    
      7200   3.6            6013.7215     -27633.683      24873.927      2431490.4      2436038.5      2436112.3      2434547        240750.76      14.025606    
      7400   3.7            6021.0637     -27762.715      24904.296      2435045.5      2430951.2      2432609.5      2432868.7      240750.76      14.025606    
      7600   3.8            6006.0385     -27601.356      24842.149      2432304.6      2435550.7      2435307.1      2434387.5      240750.76      14.025606    
      7800   3.9            6002.3608     -27551.488      24826.937      2433001.7      2432245.7      2440564.5      2435270.6      240750.76      14.025606    
      8000   4              5959.272      -27535.356      24648.714      2435492.5      2434853.3      2432506.3      2434284        240750.76      14.025606    
      8200   4.1            6004.0774     -27745.957      24834.037      2429600.4      2437878.1      2429431.1      2432303.2      240750.76      14.025606    
      8400   4.2            6015.2774     -27644.192      24880.363      2432726.9      2431049.4      2439524.6      2434433.6      240750.76      14.025606    
      8600   4.3            5990.6031     -27652.79       24778.305      2431206.7      2431355.3      2438376.4      2433646.1      240750.76      14.025606    
      8800   4.4            5999.7457     -27757.107      24816.121      2428317.8      2431487        2437712.3      2432505.7      240750.76      14.025606    
      9000   4.5            6015.2527     -27680.085      24880.261      2434898.5      2438189.9      2428167        2433751.8      240750.76      14.025606    
      9200   4.6            6012.8572     -27820.727      24870.352      2429576        2427973.7      2437991.5      2431847.1      240750.76      14.025606    
      9400   4.7            6012.855      -27821.628      24870.343      2427708.6      2436102.2      2432061.8      2431957.5      240750.76      14.025606    
      9600   4.8            6021.1598     -27809.323      24904.693      2427622.3      2431500.4      2437587.4      2432236.7      240750.76      14.025606    
      9800   4.9            5987.132      -27834.837      24763.948      2430202.9      2432553.6      2431947        2431567.8      240750.76      14.025606    
     10000   5              5967.7993     -27933.018      24683.984      2433340.8      2429419.1      2425813.9      2429524.6      240750.76      14.025606    
     10200   5.1            5997.8259     -27838.34       24808.18       2436747.7      2425402.9      2432515.3      2431555.3      240750.76      14.025606    
     10400   5.2            5969.4888     -27682.419      24690.972      2434338.3      2434416        2429627.1      2432793.8      240750.76      14.025606    
     10600   5.3            6003.9624     -27621.42       24833.561      2435341.6      2444464        2422490.9      2434098.8      240750.76      14.025606    
     10800   5.4            5991.2378     -27477.116      24780.93       2429072.6      2440551.1      2437494.1      2435705.9      240750.76      14.025606    
     11000   5.5            6014.7362     -27591.504      24878.124      2433568        2434141.2      2436169.1      2434626.1      240750.76      14.025606    
     11200   5.6            6024.6725     -27714.015      24919.223      2429269.1      2438360.8      2432990.6      2433540.2      240750.76      14.025606    
     11400   5.7            6023.2795     -27732.457      24913.461      2425496.9      2443662.4      2430741.3      2433300.2      240750.76      14.025606    
     11600   5.8            5990.664      -27513.766      24778.557      2430364.9      2441221.3      2433729.4      2435105.2      240750.76      14.025606    
     11800   5.9            5980.4897     -27582.619      24736.474      2435272.4      2432893.7      2433986.9      2434051        240750.76      14.025606    
     12000   6              5983.2179     -27733.763      24747.758      2428948.4      2436240.2      2431651.4      2432280        240750.76      14.025606    
     12200   6.1            5983.565      -27461.734      24749.194      2438167.5      2433003.1      2435626.3      2435599        240750.76      14.025606    
     12400   6.2            6027.901      -27579.661      24932.576      2438770.2      2432602.3      2434098.2      2435156.9      240750.76      14.025606    
     12600   6.3            6032.4174     -27578.79       24951.257      2434416        2433768.1      2438229.7      2435471.3      240750.76      14.025606    
     12800   6.4            6017.9778     -27498.459      24891.532      2439087.6      2432242.7      2435923.9      2435751.4      240750.76      14.025606    
     13000   6.5            6013.5939     -27425.701      24873.399      2437536.7      2438613.8      2434344.8      2436831.8      240750.76      14.025606    
     13200   6.6            6028.3658     -27529.577      24934.499      2435009.5      2432744.6      2439353        2435702.3      240750.76      14.025606    
     13400   6.7            6008.9416     -27584.603      24854.156      2438516.5      2433454.9      2431487.5      2434486.3      240750.76      14.025606    
     13600   6.8            5989.4929     -27448.21       24773.713      2437463.1      2433065.2      2436817.2      2435781.8      240750.76      14.025606    
     13800   6.9            6032.1752     -27525.266      24950.255      2435912.1      2433975.6      2437788.6      2435892.1      240750.76      14.025606    
     14000   7              5960.5522     -27421.493      24654.009      2438158.6      2434198.7      2435549.5      2435968.9      240750.76      14.025606    
     14200   7.1            6019.9199     -27700.958      24899.565      2429137.9      2436418.3      2434871.1      2433475.8      240750.76      14.025606    
     14400   7.2            5982.3877     -27675.502      24744.324      2427973.3      2433980.9      2437595.9      2433183.4      240750.76      14.025606    
     14600   7.3            5976.9231     -27870.005      24721.722      2431283.6      2431028.8      2429906        2430739.5      240750.76      14.025606    
     14800   7.4            5982.8598     -27753.531      24746.277      2430912.1      2433986.7      2432188.2      2432362.3      240750.76      14.025606    
     15000   7.5            5970.151      -27524.559      24693.711      2431150.9      2432905.6      2438955.4      2434337.3      240750.76      14.025606    
     15200   7.6            5997.628      -27793.886      24807.361      2433890.6      2428189.8      2433511        2431863.8      240750.76      14.025606    
     15400   7.7            5964.9238     -27594.074      24672.09       2435185.3      2434877.9      2431809.5      2433957.6      240750.76      14.025606    
     15600   7.8            6036.6215     -27480.585      24968.646      2434808.8      2439277.4      2435211        2436432.4      240750.76      14.025606    
     15800   7.9            6044.6419     -27415.658      25001.82       2437621        2436198.2      2437974.6      2437264.6      240750.76      14.025606    
     16000   8              6070.8233     -27526.669      25110.111      2435340.3      2435017.3      2439897.1      2436751.6      240750.76      14.025606    
     16200   8.1            6022.1697     -27656.974      24908.871      2428098        2437656.6      2436455.1      2434069.9      240750.76      14.025606    
     16400   8.2            6025.0277     -27528.705      24920.692      2436882.9      2435354.2      2434394.9      2435544        240750.76      14.025606    
     16600   8.3            5980.1793     -27581.097      24735.19       2436002.3      2430369.8      2435138.7      2433836.9      240750.76      14.025606    
     16800   8.4            6055.54       -27534.352      25046.896      2439475.3      2431039.9      2438483.9      2436333        240750.76      14.025606    
     17000   8.5            6047.1678     -27554.081      25012.267      2433745        2437320        2435438.4      2435501.1      240750.76      14.025606    
     17200   8.6            6001.326      -27405.325      24822.657      2438720.4      2436128        2434777.1      2436541.9      240750.76      14.025606    
     17400   8.7            6054.4446     -27619.009      25042.366      2432692.9      2436927.4      2436330.6      2435317        240750.76      14.025606    
     17600   8.8            5959.3823     -27370.79       24649.169      2435226.9      2436149.7      2436764.7      2436047.1      240750.76      14.025606    
     17800   8.9            6054.5006     -27567.483      25042.597      2438052.2      2432846.3      2436249.1      2435715.9      240750.76      14.025606    
     18000   9              6042.2472     -27587.581      24991.915      2432146.1      2438512.6      2435896.1      2435518.3      240750.76      14.025606    
     18200   9.1            6040.8012     -27627.734      24985.934      2432876.8      2438053.8      2433086.7      2434672.4      240750.76      14.025606    
     18400   9.2            6024.9348     -27590.27       24920.308      2435684.4      2426373.3      2442568.7      2434875.4      240750.76      14.025606    
     18600   9.3            6009.5423     -27694.259      24856.641      2439844.5      2427056.1      2433240.9      2433380.5      240750.76      14.025606    
     18800   9.4            5993.1916     -27748.774      24789.012      2436613.6      2431777.5      2428404.5      2432265.2      240750.76      14.025606    
     19000   9.5            5953.6673     -27581.116      24625.531      2433111.1      2437435.5      2431092.2      2433879.6      240750.76      14.025606    
     19200   9.6            5989.7298     -27612.073      24774.693      2435843.5      2433509.9      2432651.5      2434001.6      240750.76      14.025606    
     19400   9.7            5996.6804     -27612.366      24803.442      2439381.9      2431902.4      2430443.7      2433909.3      240750.76      14.025606    
     19600   9.8            6020.2213     -27565.16       24900.812      2439032.3      2432246.5      2433350.6      2434876.5      240750.76      14.025606    
     19800   9.9            5997.5013     -27660.4        24806.837      2437432.9      2432775.9      2430531.1      2433579.9      240750.76      14.025606    
     20000   10             6012.2729     -27614.602      24867.935      2434543.9      2437799.6      2430308.2      2434217.3      240750.76      14.025606    
     20200   10.1           5960.8211     -27488.693      24655.121      2433238.9      2436813.3      2436235        2435429.1      240750.76      14.025606    
     20400   10.2           5997.2298     -27756.957      24805.714      2431277.8      2433216.9      2431852.2      2432115.6      240750.76      14.025606    
     20600   10.3           6006.8379     -27627.652      24845.455      2435170.2      2440453.8      2427116.9      2434247        240750.76      14.025606    
     20800   10.4           6004.3102     -27656.754      24835          2435612        2433112.3      2432189.5      2433638        240750.76      14.025606    
     21000   10.5           5964.5664     -27726.239      24670.612      2430274.6      2434655.8      2431688.5      2432206.3      240750.76      14.025606    
     21200   10.6           5980.8334     -27613.37       24737.895      2433591.7      2434925.6      2432628.5      2433715.3      240750.76      14.025606    
     21400   10.7           5948.1915     -27587.971      24602.882      2431684.8      2432628.2      2434446.6      2432919.9      240750.76      14.025606    
     21600   10.8           5994.2928     -27579.979      24793.566      2436404.8      2434389.5      2432033.7      2434276        240750.76      14.025606    
     21800   10.9           6023.4928     -27742.937      24914.343      2434844.6      2431053        2432860        2432919.2      240750.76      14.025606    
     22000   11             5948.9893     -27655.688      24606.182      2430250.2      2433728.2      2433670.2      2432549.5      240750.76      14.025606    
     22200   11.1           5973.5628     -27755.141      24707.823      2430612.2      2429167.4      2435724.1      2431834.6      240750.76      14.025606    
     22400   11.2           5950.2348     -27787.229      24611.334      2429410.9      2429683.1      2434224.3      2431106.1      240750.76      14.025606    
     22600   11.3           5973.3485     -27568.74       24706.936      2433915.6      2436157.6      2432843.2      2434305.5      240750.76      14.025606    
     22800   11.4           5981.8242     -27511.337      24741.993      2438216.4      2432654        2434567.8      2435146        240750.76      14.025606    
     23000   11.5           6014.3235     -27576.263      24876.417      2433230.1      2437101.3      2434655.1      2434995.5      240750.76      14.025606    
     23200   11.6           5966.3781     -27693.241      24678.106      2437512.2      2428597.4      2432039.8      2432716.5      240750.76      14.025606    
     23400   11.7           5991.7461     -27401.916      24783.033      2438579.1      2437866.5      2432772.9      2436406.2      240750.76      14.025606    
     23600   11.8           5982.8982     -27609.828      24746.436      2438671.7      2433603.4      2429082.7      2433786        240750.76      14.025606    
     23800   11.9           6045.3568     -27597.679      25004.777      2428936.1      2439137.1      2436454.7      2434842.6      240750.76      14.025606    
     24000   12             5995.3135     -27678.254      24797.788      2429590.5      2439394.5      2430566.4      2433183.8      240750.76      14.025606    
     24200   12.1           5959.6721     -27572.507      24650.368      2435252.6      2436071.1      2429875.7      2433733.1      240750.76      14.025606    
     24400   12.2           6004.2533     -27559.273      24834.765      2442494.6      2433885.5      2429554.8      2435311.6      240750.76      14.025606    
     24600   12.3           6035.8429     -27586.255      24965.425      2444219.4      2432800.4      2428285.2      2435101.7      240750.76      14.025606    
     24800   12.4           6008.9239     -27493.947      24854.083      2435523.5      2436294.2      2435784.6      2435867.4      240750.76      14.025606    
     25000   12.5           6015.9344     -27631.363      24883.08       2434263.2      2427001.6      2442984.3      2434749.7      240750.76      14.025606    
     25200   12.6           5958.5001     -27748.691      24645.521      2428077.5      2434872.1      2432444.5      2431798        240750.76      14.025606    
     25400   12.7           5964.3107     -27630.043      24669.554      2428640.2      2437781.5      2433537.8      2433319.8      240750.76      14.025606    
     25600   12.8           6002.6023     -27731.22       24827.936      2431703.2      2429135.3      2436115.4      2432318        240750.76      14.025606    
     25800   12.9           5985.1755     -27822.957      24755.855      2430582        2430977.3      2432569.9      2431376.4      240750.76      14.025606    
     26000   13             5934.5665     -27630.267      24546.527      2429193.1      2435406        2433352.3      2432650.5      240750.76      14.025606    
     26200   13.1           5991.2128     -27666.333      24780.827      2437682.8      2431612.4      2430834.1      2433376.4      240750.76      14.025606    
     26400   13.2           5994.9499     -27444.822      24796.284      2436911.5      2438528.3      2432396.8      2435945.5      240750.76      14.025606    
     26600   13.3           6062.4147     -27714.348      25075.331      2435668.4      2434018        2432912.4      2434199.6      240750.76      14.025606    
     26800   13.4           6025.2232     -27512.288      24921.5        2437901.5      2434247.7      2436276.9      2436142        240750.76      14.025606    
     27000   13.5           6018.7953     -27593.45       24894.913      2435627.3      2433063.6      2435671.4      2434787.4      240750.76      14.025606    
     27200   13.6           5981.3634     -27598.542      24740.088      2432892.5      2436906.1      2431393        2433730.5      240750.76      14.025606    
     27400   13.7           5951.8627     -27678.997      24618.067      2429966.7      2429157.2      2437027.2      2432050.4      240750.76      14.025606    
     27600   13.8           5965.9086     -27714.379      24676.163      2433277.4      2426214.7      2436859.6      2432117.2      240750.76      14.025606    
     27800   13.9           5947.3825     -27655.179      24599.536      2431116.9      2430074.4      2436062.1      2432417.8      240750.76      14.025606    
     28000   14             5966.1404     -27642.75       24677.122      2434928.3      2435344.7      2429014.4      2433095.8      240750.76      14.025606    
     28200   14.1           6008.1918     -27687.78       24851.055      2429319.8      2434996.2      2435348.1      2433221.4      240750.76      14.025606    
     28400   14.2           5994.8664     -27706.631      24795.939      2434523.8      2436573.9      2427610.7      2432902.8      240750.76      14.025606    
     28600   14.3           6022.8098     -27765.174      24911.518      2435432.8      2427046        2436114.5      2432864.4      240750.76      14.025606    
     28800   14.4           6004.137      -27599.926      24834.284      2433373        2431437.7      2437322.6      2434044.4      240750.76      14.025606    
     29000   14.5           5994.7403     -27804.002      24795.417      2428306.1      2437315.4      2429360.9      2431660.8      240750.76      14.025606    
     29200   14.6           5973.0389     -27762.543      24705.656      2429105.6      2431912.5      2433043.5      2431353.9      240750.76      14.025606    
     29400   14.7           5974.6093     -27733.523      24712.151      2433537.5      2429573.6      2433002.7      2432037.9      240750.76      14.025606    
     29600   14.8           5961.1044     -27784.536      24656.293      2436392.4      2423960.7      2433053.6      2431135.6      240750.76      14.025606    
     29800   14.9           5977.7405     -27711.1        24725.102      2440234.6      2423673.5      2433952.1      2432620.1      240750.76      14.025606    
     30000   15             6034.6925     -27786.035      24960.667      2433763.7      2437055.7      2427297.2      2432705.6      240750.76      14.025606    
     30200   15.1           5986.3579     -27767.221      24760.746      2431402.4      2430935.2      2433308.2      2431881.9      240750.76      14.025606    
     30400   15.2           6004.0368     -27685.746      24833.869      2432149.9      2437083.9      2430981.3      2433405        240750.76      14.025606    
     30600   15.3           6012.8099     -27637.3        24870.157      2431296.8      2432785.5      2437157.9      2433746.7      240750.76      14.025606    
     30800   15.4           6037.9058     -27676.028      24973.958      2429716.1      2436877.4      2435205.9      2433933.1      240750.76      14.025606    
     31000   15.5           6043.7994     -27539.481      24998.335      2439163.9      2437164        2431652.6      2435993.5      240750.76      14.025606    
     31200   15.6           5981.6211     -27612.55       24741.154      2434602.1      2434113        2432949.5      2433888.2      240750.76      14.025606    
     31400   15.7           5986.6828     -27468.759      24762.09       2433967.6      2438483.5      2434542.8      2435664.7      240750.76      14.025606    
     31600   15.8           5987.9776     -27477.452      24767.445      2438704        2434446.3      2434524        2435891.4      240750.76      14.025606    
     31800   15.9           5994.8766     -27323.053      24795.981      2432062.4      2441129.8      2440078.1      2437756.8      240750.76      14.025606    
     32000   16             6006.1233     -27497.945      24842.499      2442907.1      2429805        2434762.8      2435825        240750.76      14.025606    
     32200   16.1           6030.2365     -27574.613      24942.236      2434153.5      2436601.9      2434355.4      2435036.9      240750.76      14.025606    
     32400   16.2           6043.3939     -27633.569      24996.658      2434258.1      2435852.2      2433497.8      2434536        240750.76      14.025606    
     32600   16.3           6003.2583     -27594.042      24830.649      2438466.9      2434456        2430365.4      2434429.4      240750.76      14.025606    
     32800   16.4           5998.919      -27492.884      24812.701      2435901.4      2437111.1      2433716.3      2435576.3      240750.76      14.025606    
     33000   16.5           5986.7781     -27521.267      24762.484      2435260        2434840.9      2434381.9      2434827.6      240750.76      14.025606    
     33200   16.6           6022.1794     -27421.897      24908.911      2433969.8      2440165.6      2435561.7      2436565.7      240750.76      14.025606    
     33400   16.7           6001.4608     -27628.897      24823.214      2430125.3      2433314.7      2437824.7      2433754.9      240750.76      14.025606    
     33600   16.8           6016.7825     -27598.396      24886.588      2430158.9      2435839.8      2437160.9      2434386.5      240750.76      14.025606    
     33800   16.9           6011.6449     -27747.123      24865.338      2436752.7      2430450.1      2431899.5      2433034.1      240750.76      14.025606    
     34000   17             6015.4769     -27753.452      24881.188      2433900.3      2433707        2429868.4      2432491.9      240750.76      14.025606    
     34200   17.1           6029.396      -27667.43       24938.76       2435435.6      2437115.4      2429649.2      2434066.7      240750.76      14.025606    
     34400   17.2           5993.6789     -27499.188      24791.027      2439096.5      2430913        2436765.3      2435591.6      240750.76      14.025606    
     34600   17.3           5999.2947     -27501.536      24814.255      2434103.5      2434336.8      2439395.7      2435945.4      240750.76      14.025606    
     34800   17.4           6023.0866     -27582.452      24912.663      2440416.9      2431059.1      2433134.3      2434870.1      240750.76      14.025606    
     35000   17.5           5978.3992     -27318.867      24727.827      2439296.5      2440027.7      2433011.7      2437445.3      240750.76      14.025606    
     35200   17.6           6035.3557     -27600.103      24963.411      2441176.4      2431882.4      2432522.3      2435193.7      240750.76      14.025606    
     35400   17.7           5945.4309     -27430.371      24591.464      2442642.6      2430544.6      2432423.7      2435203.6      240750.76      14.025606    
     35600   17.8           6024.0577     -27631.499      24916.68       2439818.9      2431634        2431158.7      2434203.9      240750.76      14.025606    
     35800   17.9           5998.0741     -27488.128      24809.206      2440477.7      2430703.6      2435716.5      2435632.6      240750.76      14.025606    
     36000   18             5983.1149     -27595.836      24747.332      2437538.3      2436828.2      2428811        2434392.5      240750.76      14.025606    
     36200   18.1           5979.6428     -27632.821      24732.971      2430806.8      2433884.7      2436208.1      2433633.2      240750.76      14.025606    
     36400   18.2           6044.1219     -27873.949      24999.669      2439009.9      2424096.2      2432286.8      2431797.6      240750.76      14.025606    
     36600   18.3           6019.348      -27611.306      24897.199      2436000.9      2431380.3      2436017.3      2434466.2      240750.76      14.025606    
     36800   18.4           6014.5805     -27612.996      24877.48       2430666.9      2441656.2      2430553        2434292        240750.76      14.025606    
     37000   18.5           6027.189      -27426.157      24929.631      2438107.3      2437056.4      2435706.9      2436956.9      240750.76      14.025606    
     37200   18.6           6030.7598     -27548.533      24944.401      2432839.6      2437705.6      2435184.9      2435243.4      240750.76      14.025606    
     37400   18.7           6028.8037     -27475.323      24936.31       2437873.6      2437920.8      2433761.7      2436518.7      240750.76      14.025606    
     37600   18.8           6023.435      -27553.439      24914.104      2439759.1      2437122.1      2428864.2      2435248.5      240750.76      14.025606    
     37800   18.9           6008.9899     -27870.539      24854.356      2426106        2432179.9      2435639.5      2431308.5      240750.76      14.025606    
     38000   19             5994.3612     -27805.28       24793.849      2434898        2431190.6      2430514        2432200.9      240750.76      14.025606    
     38200   19.1           5991.0584     -27641.242      24780.188      2439107.6      2433291.5      2429071.4      2433823.5      240750.76      14.025606    
     38400   19.2           6017.8571     -27609.267      24891.033      2440455.5      2435287.6      2427291.6      2434344.9      240750.76      14.025606    
     38600   19.3           5963.2008     -27488.673      24664.964      2435431.3      2433589.1      2436515.3      2435178.5      240750.76      14.025606    
     38800   19.4           5942.0649     -27431.735      24577.541      2434366.1      2435856.6      2436231.9      2435484.9      240750.76      14.025606    
     39000   19.5           5992.0714     -27722.899      24784.378      2429709.6      2431519.1      2436338        2432522.2      240750.76      14.025606    
     39200   19.6           5996.4677     -27608.707      24802.562      2431802.8      2439020.9      2432545.3      2434456.3      240750.76      14.025606    
     39400   19.7           6000.7891     -27635.332      24820.436      2436571.8      2431366.7      2433481.3      2433806.6      240750.76      14.025606    
     39600   19.8           5961.4244     -27663.036      24657.616      2433918.1      2432537.1      2432194        2432883.1      240750.76      14.025606    
     39800   19.9           6005.1877     -27657.991      24838.63       2437024        2427509.9      2436360.3      2433631.4      240750.76      14.025606    
     40000   20             6046.0019     -27686.076      25007.445      2432041.5      2435270.6      2434456.3      2433922.8      240750.76      14.025606    
     40200   20.1           6003.6958     -27574.858      24832.459      2437414.6      2435193.5      2430981.1      2434529.7      240750.76      14.025606    
     40400   20.2           6012.9158     -27769.792      24870.594      2432679.3      2430330.6      2434148.2      2432386        240750.76      14.025606    
     40600   20.3           5960.4175     -27596.74       24653.451      2433848.3      2435342.2      2431615.8      2433602.1      240750.76      14.025606    
     40800   20.4           6031.4497     -27729.831      24947.254      2438069.5      2429052.9      2431856.1      2432992.8      240750.76      14.025606    
     41000   20.5           5955.2123     -27500.67       24631.922      2430356.2      2436588.1      2437598.9      2434847.8      240750.76      14.025606    
     41200   20.6           6024.3061     -27609.352      24917.707      2435228.2      2433489.4      2435648.5      2434788.7      240750.76      14.025606    
     41400   20.7           5984.2343     -27439.385      24751.962      2431613.9      2433604.2      2442476.3      2435898.1      240750.76      14.025606    
     41600   20.8           5983.7554     -27509.858      24749.982      2428949.3      2437986.6      2438998.3      2435311.4      240750.76      14.025606    
     41800   20.9           5990.1273     -27479.5        24776.337      2436237.1      2441466.8      2428929.5      2435544.4      240750.76      14.025606    
     42000   21             6052.6104     -27679.269      25034.779      2436624.4      2433388.9      2433195.6      2434403        240750.76      14.025606    
     42200   21.1           5969.99       -27514.563      24693.045      2433907.8      2438099.3      2432490.9      2434832.6      240750.76      14.025606    
     42400   21.2           6014.5675     -27486.932      24877.426      2436612.2      2439881.8      2431766.9      2436087        240750.76      14.025606    
     42600   21.3           5995.0349     -27619.523      24796.636      2436919.6      2437798.1      2427854.7      2434190.8      240750.76      14.025606    
     42800   21.4           5984.0826     -27649.838      24751.335      2439982.7      2432874.2      2427946.9      2433601.3      240750.76      14.025606    
     43000   21.5           5974.8806     -27497.37       24713.274      2438597.8      2430932        2436839.4      2435456.4      240750.76      14.025606    
     43200   21.6           6003.6009     -27501.023      24832.066      2437427.7      2438068.2      2430948.7      2435481.5      240750.76      14.025606    
     43400   21.7           5998.4307     -27392.865      24810.681      2431076.2      2434662.3      2443845        2436527.8      240750.76      14.025606    
     43600   21.8           6029.806      -27466.579      24940.456      2434323.9      2439010.7      2436300.1      2436544.9      240750.76      14.025606    
     43800   21.9           6006.8488     -27544.948      24845.5        2427924.7      2438589.3      2438812        2435108.7      240750.76      14.025606    
     44000   22             5969.0721     -27571.134      24689.249      2437503.8      2430828.7      2433707.5      2434013.3      240750.76      14.025606    
     44200   22.1           5984.6991     -27629.849      24753.885      2436140.4      2431120.9      2434910        2434057.1      240750.76      14.025606    
     44400   22.2           5992.3402     -27428.014      24785.49       2437995.7      2439120.5      2432196.6      2436437.6      240750.76      14.025606    
     44600   22.3           6026.662      -27591.379      24927.452      2436978.8      2430114        2438872        2435321.6      240750.76      14.025606    
     44800   22.4           5980.5486     -27435.082      24736.718      2435418        2430638.3      2442166        2436074.1      240750.76      14.025606    
     45000   22.5           5987.6458     -27510.833      24766.073      2440189.1      2434982.3      2431049.8      2435407.1      240750.76      14.025606    
     45200   22.6           6044.3917     -27726.487      25000.785      2425065        2438702.5      2437245.6      2433671.1      240750.76      14.025606    
     45400   22.7           5966.7798     -27603.682      24679.767      2433067.6      2434587.1      2433936.9      2433863.9      240750.76      14.025606    
     45600   22.8           5994.5116     -27728.918      24794.471      2434238.7      2432538.5      2430807.6      2432528.3      240750.76      14.025606    
     45800   22.9           5967.8759     -27669.608      24684.301      2433191.1      2432430.1      2433183.4      2432934.9      240750.76      14.025606    
     46000   23             5992.4518     -27692.89       24785.952      2437446.4      2433720.7      2427048.1      2432738.4      240750.76      14.025606    
     46200   23.1           5977.1713     -27564.469      24722.748      2433325.5      2437196.9      2432612.4      2434378.3      240750.76      14.025606    
     46400   23.2           5992.9862     -27743.497      24788.162      2431130.9      2433779.5      2432368.6      2432426.3      240750.76      14.025606    
     46600   23.3           6047.9903     -27707.024      25015.67       2431488.8      2435091.2      2435557.9      2434045.9      240750.76      14.025606    
     46800   23.4           6030.5574     -27707.413      24943.564      2435623.2      2432317.1      2433969.1      2433969.8      240750.76      14.025606    
     47000   23.5           6011.939      -27403.636      24866.554      2434395.3      2435400.9      2441925.8      2437240.6      240750.76      14.025606    
     47200   23.6           6069.7006     -27691.073      25105.468      2427677.9      2436459.4      2438606.3      2434247.9      240750.76      14.025606    
     47400   23.7           6043.1406     -27526.718      24995.61       2437297        2431397        2439590.9      2436095        240750.76      14.025606    
     47600   23.8           5968.4995     -27488.498      24686.88       2437382        2432820.5      2436042.9      2435415.1      240750.76      14.025606    
     47800   23.9           5999.8556     -27575.307      24816.575      2439117.9      2430398.4      2435684.3      2435066.9      240750.76      14.025606    
     48000   24             5946.9306     -27704.504      24597.667      2437089        2427348.3      2431950.5      2432129.3      240750.76      14.025606    
     48200   24.1           5974.6754     -27750.875      24712.425      2440343.5      2423432.3      2432142.5      2431972.8      240750.76      14.025606    
     48400   24.2           5996.7065     -27866.946      24803.55       2431476.9      2429573.4      2431980.2      2431010.2      240750.76      14.025606    
     48600   24.3           5988.7788     -27744.648      24770.759      2437601.1      2432056        2427731.2      2432462.8      240750.76      14.025606    
     48800   24.4           5964.9765     -27709.849      24672.308      2438847.1      2428158.5      2430213.7      2432406.4      240750.76      14.025606    
     49000   24.5           6013.6505     -27804.835      24873.634      2431957.7      2434195.9      2429834.7      2431996.1      240750.76      14.025606    
     49200   24.6           6021.4991     -27743.573      24906.097      2434878.5      2426636.3      2436324.4      2432613.1      240750.76      14.025606    
     49400   24.7           5945.8865     -27450.161      24593.348      2434733.7      2436515.8      2434985.6      2435411.7      240750.76      14.025606    
     49600   24.8           6003.9127     -27735.211      24833.356      2432142.6      2431791        2435140.7      2433024.8      240750.76      14.025606    
     49800   24.9           5976.7519     -27577.594      24721.013      2432948.1      2435930.2      2433713.4      2434197.2      240750.76      14.025606    
     50000   25             5978.7015     -27735.436      24729.078      2430413.7      2431184        2435971.1      2432522.9      240750.76      14.025606    
Loop time of 73.2075 on 1 procs for 50000 steps with 32000 atoms

Performance: 29.505 ns/day, 0.813 hours/ns, 682.990 timesteps/s, 21.856 Matom-step/s
99.6% CPU use with 1 MPI tasks x 1 OpenMP threads

MPI task timing breakdown:
Section |  min time  |  avg time  |  max time  |%varavg| %total
---------------------------------------------------------------
Pair    | 41.333     | 41.333     | 41.333     |   0.0 | 56.46
Neigh   | 0.43329    | 0.43329    | 0.43329    |   0.0 |  0.59
Comm    | 27.021     | 27.021     | 27.021     |   0.0 | 36.91
Output  | 0.11651    | 0.11651    | 0.11651    |   0.0 |  0.16
Modify  | 2.2556     | 2.2556     | 2.2556     |   0.0 |  3.08
Other   |            | 2.049      |            |       |  2.80

Nlocal:          32000 ave       32000 max       32000 min
Histogram: 1 0 0 0 0 0 0 0 0 0
Nghost:          30919 ave       30919 max       30919 min
Histogram: 1 0 0 0 0 0 0 0 0 0
Neighs:    4.32595e+06 ave 4.32595e+06 max 4.32595e+06 min
Histogram: 1 0 0 0 0 0 0 0 0 0

Total # of neighbors = 4325954
Ave neighs/atom = 135.18606
Neighbor list builds = 921
Dangerous builds = 0
Total wall time: 0:01:15
