LAMMPS (10 Sep 2025)
KOKKOS mode with Kokkos version 4.6.2 is enabled
  using double precision
  using view layout = legacy
  will use up to 1 GPU(s) per node
  using 1 OpenMP thread(s) per MPI task
package kokkos
package kokkos newton on neigh half comm device
dimension       3
units           metal
atom_style      atomic
boundary        p p p

# --- Create FCC Cu lattice ---
#lattice         fcc 3.52
#region          box block 0 20 0 20 0 20
#create_box      1 box
#create_atoms    1 box
#mass            1 63.546

read_data       ../../../eos/0.67V/Cu-0.67V.lmp
Reading data file ...
  orthogonal box = (4.3988032 4.3988032 4.3988032) to (66.001197 66.001197 66.001197)
  1 by 1 by 1 MPI processor grid
  reading atoms ...
  32000 atoms
  reading velocities ...
  32000 velocities
  read_data CPU = 0.156 seconds
#change_box     all x scale _scale_ y scale _scale_ z scale _scale_ remap

neighbor        2.0 bin
neigh_modify    delay 0 every 1 check yes

pair_style      eam/alloy
pair_coeff      * * Cu-EAM-Z1622old.eam.alloy Cu

shell           "mkdir -p dumps"

variable	thold equal 6000
variable	itemp equal 2*6000
variable	runNVE equal 50000
variable	tstep equal 0.0005
variable	ph string 6000K-0.67V

timestep        ${tstep}
timestep        0.0005
thermo          200
thermo_style    custom step time temp pe ke pxx pyy pzz press vol density
#thermo_modify	norm yes

dump        	RDUMP all custom 20000 dumps/${ph}-NV-6000K-*.xyz id type x y z
dump        	RDUMP all custom 20000 dumps/6000K-0.67V-NV-6000K-*.xyz id type x y z

#NV  6000K calculation
velocity 		all create ${itemp}  23796
velocity 		all create 12000  23796

fix 			LANG all langevin ${thold} ${thold} $(300.0*dt) 33948
fix 			LANG all langevin 6000 ${thold} $(300.0*dt) 33948
fix 			LANG all langevin 6000 6000 $(300.0*dt) 33948
fix 			LANG all langevin 6000 6000 0.14999999999999999445 33948
fix 			NVE all nve
run  			${runNVE}
run  			50000
Neighbor list info ...
  update: every = 1 steps, delay = 0 steps, check = yes
  max neighbors/atom: 2000, page size: 100000
  master list distance cutoff = 7.859375
  ghost atom cutoff = 7.859375
  binsize = 7.859375, bins = 8 8 8
  1 neighbor lists, perpetual/occasional/extra = 1 0 0
  (1) pair eam/alloy/kk, perpetual
      attributes: half, newton on, kokkos_device
      pair build: half/bin/newton/kk/device
      stencil: half/bin/3d
      bin: kk/device
Per MPI rank memory allocation (min/avg/max) = 12.95 | 12.95 | 12.95 Mbytes
   Step          Time           Temp          PotEng         KinEng          Pxx            Pyy            Pzz           Press          Volume        Density    
         0   0              12000         -53560.821      49634.345      2334490.5      2333151.9      2333201.9      2333614.8      233772.15      14.444301    
       200   0.1            5832.8643     -27577.298      24125.867      2613011.4      2616530.9      2614071.5      2614537.9      233772.15      14.444301    
       400   0.2            5909.9166     -27317.877      24444.57       2619597        2617344.3      2621229.1      2619390.2      233772.15      14.444301    
       600   0.3            5992.677      -27300.696      24786.883      2622209.4      2619779.2      2621832        2621273.5      233772.15      14.444301    
       800   0.4            5992.026      -27135.099      24784.19       2624143.9      2622999.5      2623008.8      2623384.1      233772.15      14.444301    
      1000   0.5            6032.4853     -27133.954      24951.538      2623464.4      2623873.3      2625365.6      2624234.4      233772.15      14.444301    
      1200   0.6            5999.362      -27016.401      24814.533      2629849.3      2619030.8      2626608.5      2625162.9      233772.15      14.444301    
      1400   0.7            5979.4423     -27093.947      24732.142      2621847.2      2625114.4      2623721.4      2623561        233772.15      14.444301    
      1600   0.8            5979.8283     -27074.367      24733.738      2619977.6      2627283.3      2624971.1      2624077.3      233772.15      14.444301    
      1800   0.9            6017.5647     -27082.903      24889.823      2629275.4      2622462.1      2621502.4      2624413.3      233772.15      14.444301    
      2000   1              6033.5684     -26831.134      24956.018      2628641.7      2630689.9      2624692        2628007.8      233772.15      14.444301    
      2200   1.1            5987.995      -26599.078      24767.517      2627187.6      2632795.8      2629939.7      2629974.4      233772.15      14.444301    
      2400   1.2            6004.0412     -26701.541      24833.888      2632115.2      2627842.7      2628362.3      2629440.1      233772.15      14.444301    
      2600   1.3            6025.8306     -26855.413      24924.013      2625330        2628298.6      2629370.4      2627666.3      233772.15      14.444301    
      2800   1.4            5968.7163     -26783.41       24687.777      2630179.4      2627072        2625595.2      2627615.5      233772.15      14.444301    
      3000   1.5            6021.7627     -26867.462      24907.187      2628730.2      2626515.5      2627293.9      2627513.2      233772.15      14.444301    
      3200   1.6            6029.4467     -26791.055      24938.97       2630892.4      2626899.6      2628414.6      2628735.5      233772.15      14.444301    
      3400   1.7            6027.4085     -26880.814      24930.539      2630875.5      2626822.7      2624426.9      2627375        233772.15      14.444301    
      3600   1.8            6025.3998     -26773.834      24922.231      2631837.9      2626590.2      2627601.4      2628676.5      233772.15      14.444301    
      3800   1.9            5965.1045     -26722.923      24672.838      2626746.1      2630655.8      2627472.2      2628291.4      233772.15      14.444301    
      4000   2              5985.9025     -26774.669      24758.862      2630259.4      2626640.4      2626093.4      2627664.4      233772.15      14.444301    
      4200   2.1            5955.3574     -26782.72       24632.522      2628942.6      2628536.9      2624023.5      2627167.7      233772.15      14.444301    
      4400   2.2            5964.0495     -26680.929      24668.474      2631004.4      2628826.9      2626213.7      2628681.7      233772.15      14.444301    
      4600   2.3            5981.4378     -26615          24740.396      2632583.9      2630964.7      2626796.4      2630115        233772.15      14.444301    
      4800   2.4            5995.5525     -26694          24798.777      2626669.7      2635299.1      2626682        2629550.3      233772.15      14.444301    
      5000   2.5            6008.4939     -26588.965      24852.305      2634104.4      2626562.6      2632241.1      2630969.4      233772.15      14.444301    
      5200   2.6            5986.8505     -26550.57       24762.783      2635523.3      2625493.5      2631888.1      2630968.3      233772.15      14.444301    
      5400   2.7            6005.7513     -26517.01       24840.961      2634960.8      2628708.1      2631464.7      2631711.2      233772.15      14.444301    
      5600   2.8            5964.8513     -26633.355      24671.79       2631738.7      2629517.3      2626715.5      2629323.8      233772.15      14.444301    
      5800   2.9            5987.5372     -26438.057      24765.624      2634632.1      2630331.3      2633390.6      2632784.7      233772.15      14.444301    
      6000   3              5966.2048     -26288.504      24677.389      2635481.6      2634912        2631100.8      2633831.5      233772.15      14.444301    
      6200   3.1            5969.9176     -26450.439      24692.746      2635603.2      2626671.2      2633801.1      2632025.2      233772.15      14.444301    
      6400   3.2            5998.1693     -26353.337      24809.6        2634590.6      2634500.6      2631233        2633441.4      233772.15      14.444301    
      6600   3.3            6002.6135     -26356.85       24827.982      2633485.1      2635662.1      2631976.4      2633707.9      233772.15      14.444301    
      6800   3.4            5988.9593     -26204.22       24771.506      2637132.1      2636523.7      2632328.8      2635328.2      233772.15      14.444301    
      7000   3.5            5971.2242     -26184.199      24698.15       2638112.8      2636182        2632009.3      2635434.7      233772.15      14.444301    
      7200   3.6            6014.3217     -25982.18       24876.41       2635640.6      2644465        2636392.8      2638832.8      233772.15      14.444301    
      7400   3.7            6022.1357     -25949.224      24908.73       2638431.7      2640810.8      2639317.1      2639519.9      233772.15      14.444301    
      7600   3.8            6022.2993     -25967.488      24909.407      2638945.1      2637916.9      2640251.9      2639038        233772.15      14.444301    
      7800   3.9            6008.1185     -25821.696      24850.752      2638031.5      2643465.1      2640624.7      2640707.1      233772.15      14.444301    
      8000   4              6017.3567     -25886.93       24888.963      2637805.6      2642288.3      2639427.5      2639840.5      233772.15      14.444301    
      8200   4.1            5989.4724     -25895.496      24773.628      2639661.2      2638710.5      2640002.6      2639458.1      233772.15      14.444301    
      8400   4.2            5995.0029     -25850.282      24796.503      2641956.2      2637938.8      2639636.1      2639843.7      233772.15      14.444301    
      8600   4.3            6017.4992     -25859.47       24889.552      2636476.9      2643067.8      2640896.6      2640147.1      233772.15      14.444301    
      8800   4.4            6018.8771     -25699.984      24895.252      2642362.5      2643501.5      2640835.1      2642233        233772.15      14.444301    
      9000   4.5            5970.4863     -25592.524      24695.098      2643228.8      2646678.7      2638568        2642825.2      233772.15      14.444301    
      9200   4.6            5994.4597     -25400.628      24794.257      2638682        2647731        2650635.9      2645683        233772.15      14.444301    
      9400   4.7            5958.3586     -25553.711      24644.935      2635604        2647755.7      2645728.7      2643029.5      233772.15      14.444301    
      9600   4.8            5931.9736     -25481.888      24535.802      2644301.5      2644166.5      2641716.8      2643394.9      233772.15      14.444301    
      9800   4.9            5933.5759     -25320.128      24542.429      2646458.1      2646547.9      2644508.9      2645838.3      233772.15      14.444301    
     10000   5              5944.5707     -24930.252      24587.906      2651200.4      2653749.4      2647643.9      2650864.6      233772.15      14.444301    
     10200   5.1            5950.6427     -24797.241      24613.021      2655877.4      2653435.3      2648637.1      2652649.9      233772.15      14.444301    
     10400   5.2            5949.6848     -24774.105      24609.059      2648035.7      2657216.5      2654060        2653104        233772.15      14.444301    
     10600   5.3            5938.3827     -24545.76       24562.311      2654559.3      2657058.8      2655366.3      2655661.4      233772.15      14.444301    
     10800   5.4            5991.4327     -24367.843      24781.736      2658442.3      2659599        2659017.8      2659019.7      233772.15      14.444301    
     11000   5.5            5990.5638     -24051.098      24778.142      2664758.7      2666403.3      2658307.5      2663156.5      233772.15      14.444301    
     11200   5.6            5981.7339     -23785.726      24741.62       2663551.2      2671843.6      2663605        2666333.3      233772.15      14.444301    
     11400   5.7            5967.0264     -23697.45       24680.787      2669338.8      2667758        2663818.2      2666971.6      233772.15      14.444301    
     11600   5.8            5974.7509     -23414.214      24712.737      2670072.8      2672266.3      2670359.8      2670899.6      233772.15      14.444301    
     11800   5.9            5934.8697     -23486.611      24547.781      2672861.6      2669814.6      2666185.6      2669620.6      233772.15      14.444301    
     12000   6              5928.7305     -23073.469      24522.388      2677237.4      2670562.2      2674787.2      2674195.6      233772.15      14.444301    
     12200   6.1            5975.073      -22837.583      24714.069      2676787.3      2680034.1      2677957.1      2678259.5      233772.15      14.444301    
     12400   6.2            6014.2494     -22464.024      24876.11       2686777.1      2684808.7      2679774.5      2683786.8      233772.15      14.444301    
     12600   6.3            5978.8337     -22325.345      24729.624      2684773.4      2684630.1      2683659.2      2684354.2      233772.15      14.444301    
     12800   6.4            5958.2845     -22057.813      24644.629      2693250.3      2683843.2      2686326.9      2687806.8      233772.15      14.444301    
     13000   6.5            5948.9385     -21736.949      24605.972      2690513.4      2690811.3      2693649.6      2691658.1      233772.15      14.444301    
     13200   6.6            5963.1208     -21387.35       24664.633      2701280.9      2692211.4      2696217        2696569.8      233772.15      14.444301    
     13400   6.7            5954.387      -21121.99       24628.508      2696055.1      2698470.2      2703228.7      2699251.3      233772.15      14.444301    
     13600   6.8            5936.9083     -20871.467      24556.213      2700477.3      2701469.2      2705903.6      2702616.7      233772.15      14.444301    
     13800   6.9            6005.3497     -20561.9        24839.3        2712375.7      2704463        2706002.1      2707613.6      233772.15      14.444301    
     14000   7              5915.3431     -20104.901      24467.015      2715213.6      2707156.1      2712703.7      2711691.2      233772.15      14.444301    
     14200   7.1            5967.0781     -19891.656      24681.001      2715961.9      2713582.3      2715691.4      2715078.5      233772.15      14.444301    
     14400   7.2            5938.5307     -19671.096      24562.923      2719015.6      2719722.2      2715279.6      2718005.8      233772.15      14.444301    
     14600   7.3            5928.6348     -19299.993      24521.992      2723309.8      2723141.5      2719856        2722102.4      233772.15      14.444301    
     14800   7.4            5941.7463     -19203.871      24576.224      2722070.9      2732927        2715930.2      2723642.7      233772.15      14.444301    
     15000   7.5            5971.464      -19004.774      24699.142      2722516.9      2734807        2722757.6      2726693.8      233772.15      14.444301    
     15200   7.6            5944.1635     -18586.362      24586.222      2734370.4      2731590        2728613.6      2731524.7      233772.15      14.444301    
     15400   7.7            5977.1166     -18670.995      24722.522      2733561.7      2732530.1      2727399        2731163.6      233772.15      14.444301    
     15600   7.8            5952.5668     -18501.42       24620.979      2736125.1      2728998.5      2733177.4      2732767        233772.15      14.444301    
     15800   7.9            5964.2639     -18439.661      24669.361      2733079.6      2733511        2733922        2733504.2      233772.15      14.444301    
     16000   8              5980.7481     -18340.939      24737.543      2737726.5      2735281.5      2732497.4      2735168.5      233772.15      14.444301    
     16200   8.1            6053.12       -18597.092      25036.887      2737762.7      2732814.2      2730259.3      2733612.1      233772.15      14.444301    
     16400   8.2            5964.4111     -18461.392      24669.97       2736963.2      2733620.7      2729575        2733386.3      233772.15      14.444301    
     16600   8.3            5978.8199     -18552.236      24729.567      2735397.3      2731248.3      2731601.6      2732749.1      233772.15      14.444301    
     16800   8.4            5987.7348     -18361.55       24766.441      2739074.5      2738880.3      2727558.7      2735171.2      233772.15      14.444301    
     17000   8.5            6027.4767     -18251.042      24930.821      2733394.8      2735557.8      2742847.1      2737266.6      233772.15      14.444301    
     17200   8.6            6017.4597     -18189.074      24889.389      2733292.6      2738761.4      2741660.9      2737905        233772.15      14.444301    
     17400   8.7            5965.8522     -18240.289      24675.93       2729528.3      2746883        2732190.8      2736200.7      233772.15      14.444301    
     17600   8.8            6004.0823     -18314.629      24834.057      2731702.4      2738885        2737227.9      2735938.4      233772.15      14.444301    
     17800   8.9            5997.0401     -17996.523      24804.929      2731528        2745269.3      2742741.2      2739846.2      233772.15      14.444301    
     18000   9              6031.2286     -18208.79       24946.34       2737224        2739978        2736205.6      2737802.5      233772.15      14.444301    
     18200   9.1            5976.2179     -18170.41       24718.805      2740308        2729889.8      2741166.6      2737121.5      233772.15      14.444301    
     18400   9.2            6002.0376     -18217.152      24825.6        2739810.7      2734411.8      2737406.3      2737209.6      233772.15      14.444301    
     18600   9.3            6010.9752     -18373.248      24862.568      2736358.1      2730581.9      2738939.5      2735293.2      233772.15      14.444301    
     18800   9.4            6003.0032     -18360.105      24829.594      2739371.6      2732335.9      2733836.1      2735181.2      233772.15      14.444301    
     19000   9.5            6017.8072     -18331.001      24890.826      2734937.4      2739618.8      2733537.9      2736031.4      233772.15      14.444301    
     19200   9.6            5986.6396     -18168.601      24761.911      2738817.3      2742391.8      2732404.1      2737871.1      233772.15      14.444301    
     19400   9.7            6032.9905     -18332.204      24953.627      2737141.2      2739542.4      2731383.1      2736022.2      233772.15      14.444301    
     19600   9.8            5983.3348     -18185.714      24748.242      2739116.6      2737386.1      2734688.6      2737063.7      233772.15      14.444301    
     19800   9.9            5988.2347     -18299.174      24768.509      2733062.4      2734774.1      2739965.9      2735934.1      233772.15      14.444301    
     20000   10             6053.7146     -18310.074      25039.346      2734554.3      2735793.6      2741070.1      2737139.3      233772.15      14.444301    
     20200   10.1           6058.8204     -18282.184      25060.465      2738726.5      2741892.2      2731393.7      2737337.5      233772.15      14.444301    
     20400   10.2           6050.6557     -18358.651      25026.694      2738910.3      2738742.1      2730268.9      2735973.7      233772.15      14.444301    
     20600   10.3           6018.0705     -18170.488      24891.916      2733544.2      2740705.1      2741016.4      2738421.9      233772.15      14.444301    
     20800   10.4           5985.7194     -18197.259      24758.105      2736047.8      2737614.6      2737318.8      2736993.7      233772.15      14.444301    
     21000   10.5           6016.574      -18198.512      24885.725      2736016        2737221.9      2739796.8      2737678.3      233772.15      14.444301    
     21200   10.6           6010.145      -18354.856      24859.134      2735703.6      2733064.9      2737947.9      2735572.2      233772.15      14.444301    
     21400   10.7           5995.3223     -18344.789      24797.824      2735366.3      2735994.9      2735586.9      2735649.4      233772.15      14.444301    
     21600   10.8           5997.15       -18309.626      24805.384      2729484.9      2735852.2      2741833.4      2735723.5      233772.15      14.444301    
     21800   10.9           5971.1014     -18468.372      24697.642      2734046.1      2734116.3      2732237.8      2733466.8      233772.15      14.444301    
     22000   11             6021.8706     -18438.023      24907.633      2738137.9      2731887        2733673.6      2734566.2      233772.15      14.444301    
     22200   11.1           5991.9385     -18427.059      24783.828      2737390.3      2732799.2      2732721.9      2734303.8      233772.15      14.444301    
     22400   11.2           5964.5443     -18260.354      24670.521      2739899.3      2729094.8      2737855.1      2735616.4      233772.15      14.444301    
     22600   11.3           6023.6563     -18311.964      24915.02       2733628.4      2731323.3      2744030.7      2736327.5      233772.15      14.444301    
     22800   11.4           5988.3448     -17990.522      24768.964      2731372.7      2744780.6      2743171.2      2739774.8      233772.15      14.444301    
     23000   11.5           6063.5782     -18047.097      25080.144      2737808        2736484.8      2746361.5      2740218.1      233772.15      14.444301    
     23200   11.6           6024.8344     -18121.596      24919.892      2745943.8      2738791.5      2731884.2      2738873.2      233772.15      14.444301    
     23400   11.7           6018.726      -18380.099      24894.627      2735188.2      2733045.9      2737972.5      2735402.2      233772.15      14.444301    
     23600   11.8           5989.6121     -18272.288      24774.206      2732431.6      2737581.4      2738708.3      2736240.4      233772.15      14.444301    
     23800   11.9           5982.5469     -18252.391      24744.983      2732560.6      2733871.8      2742304.4      2736245.6      233772.15      14.444301    
     24000   12             6000.3138     -18163.973      24818.47       2735317.9      2738176.7      2739739.6      2737744.7      233772.15      14.444301    
     24200   12.1           6017.6095     -18261.636      24890.009      2737915        2735846.1      2737969.3      2737243.5      233772.15      14.444301    
     24400   12.2           6003.1241     -18175.428      24830.094      2743521.5      2737427        2732306.2      2737751.6      233772.15      14.444301    
     24600   12.3           6010.1537     -18233.967      24859.17       2738551.7      2738885.5      2734238.3      2737225.2      233772.15      14.444301    
     24800   12.4           6044.3743     -18292.147      25000.713      2731801.6      2737008        2742844.6      2737218        233772.15      14.444301    
     25000   12.5           6056.4113     -18261.249      25050.5        2735666.2      2742611.3      2734300.3      2737525.9      233772.15      14.444301    
     25200   12.6           6021.0743     -18425.266      24904.34       2731844.8      2740749.1      2732220.6      2734938.2      233772.15      14.444301    
     25400   12.7           6035.2008     -18474.91       24962.769      2739529.4      2725447.1      2739035.5      2734670.7      233772.15      14.444301    
     25600   12.8           6013.2289     -18373.602      24871.889      2737617.1      2732196.6      2736513.1      2735442.3      233772.15      14.444301    
     25800   12.9           6025.2526     -18270.595      24921.622      2738528.9      2735418.3      2736097.2      2736681.5      233772.15      14.444301    
     26000   13             5977.0843     -18387.535      24722.388      2735225        2737903        2730797.7      2734641.9      233772.15      14.444301    
     26200   13.1           5998.082      -18231.955      24809.239      2737900.8      2734410        2737895.2      2736735.3      233772.15      14.444301    
     26400   13.2           6013.9671     -18101.558      24874.943      2733147.8      2744389.2      2739415.5      2738984.2      233772.15      14.444301    
     26600   13.3           5976.4015     -18142.855      24719.564      2736927.2      2738198.9      2738063.7      2737729.9      233772.15      14.444301    
     26800   13.4           5987.0611     -18211.74       24763.654      2737973.8      2738046.9      2734943.1      2736987.9      233772.15      14.444301    
     27000   13.5           6030.9815     -18368.465      24945.318      2734663.6      2736449.3      2736838.2      2735983.7      233772.15      14.444301    
     27200   13.6           5989.5616     -18243.556      24773.997      2735473.9      2737031        2737103.2      2736536        233772.15      14.444301    
     27400   13.7           5975.2781     -18095.369      24714.918      2734422.4      2743033.3      2738201.9      2738552.5      233772.15      14.444301    
     27600   13.8           6026.5729     -18279.423      24927.083      2732802.6      2736586.8      2740947.6      2736779        233772.15      14.444301    
     27800   13.9           5983.6942     -18257.81       24749.728      2731172.7      2736236.4      2740745.1      2736051.4      233772.15      14.444301    
     28000   14             5981.2246     -18196.801      24739.514      2731326.6      2737115.5      2743962.7      2737468.3      233772.15      14.444301    
     28200   14.1           6010.1441     -18368.496      24859.13       2733528.1      2739168.9      2732338.2      2735011.7      233772.15      14.444301    
     28400   14.2           6021.114      -18253.561      24904.504      2734925        2733572.6      2743153.9      2737217.2      233772.15      14.444301    
     28600   14.3           5981.4117     -18258.297      24740.287      2735626.1      2732772.4      2740209.3      2736202.6      233772.15      14.444301    
     28800   14.4           5958.4651     -18221.593      24645.376      2740450.4      2735641.6      2732110.7      2736067.5      233772.15      14.444301    
     29000   14.5           5972.3565     -18493.285      24702.833      2731938.6      2734541.4      2733075.3      2733185.1      233772.15      14.444301    
     29200   14.6           5967.6906     -18217.373      24683.534      2741861.5      2729514.2      2738283.1      2736552.9      233772.15      14.444301    
     29400   14.7           6040.9657     -18370.436      24986.615      2738715.9      2738238.7      2731005.4      2735986.6      233772.15      14.444301    
     29600   14.8           6041.6108     -18386.212      24989.283      2734001.9      2739495.4      2732591.1      2735362.8      233772.15      14.444301    
     29800   14.9           6034.5477     -18198.602      24960.068      2741668.8      2736376.4      2734473.1      2737506.1      233772.15      14.444301    
     30000   15             6009.3738     -18342.587      24855.944      2737421        2730851.6      2738267.3      2735513.3      233772.15      14.444301    
     30200   15.1           5977.7964     -17989.334      24725.334      2746828.5      2739846.5      2732422.7      2739699.2      233772.15      14.444301    
     30400   15.2           5988.0941     -18140.459      24767.927      2742314.3      2736785.8      2734959.9      2738020        233772.15      14.444301    
     30600   15.3           6024.7878     -18142.327      24919.699      2738674.1      2736068.9      2740452.5      2738398.5      233772.15      14.444301    
     30800   15.4           5964.2436     -18258.674      24669.277      2739463.4      2730332        2739088.1      2736294.5      233772.15      14.444301    
     31000   15.5           5991.3308     -18384.98       24781.315      2730907.7      2735803.3      2738024.1      2734911.7      233772.15      14.444301    
     31200   15.6           5999.9734     -18241.733      24817.062      2738877.2      2735215.3      2737325.7      2737139.4      233772.15      14.444301    
     31400   15.7           6000.276      -18489.485      24818.314      2731034.2      2734411.2      2735236.9      2733560.8      233772.15      14.444301    
     31600   15.8           5989.7941     -18353.49       24774.959      2733215.9      2733122.4      2738697        2735011.8      233772.15      14.444301    
     31800   15.9           5973.3573     -18279.782      24706.973      2731889.1      2734992.5      2741093.9      2735991.8      233772.15      14.444301    
     32000   16             6016.5226     -18482.14       24885.513      2736509.8      2730423.2      2735739.8      2734224.3      233772.15      14.444301    
     32200   16.1           6008.3718     -18270.015      24851.8        2740557.1      2733413.6      2736734.5      2736901.7      233772.15      14.444301    
     32400   16.2           5991.5082     -18143.854      24782.048      2736834.9      2741479.6      2736322.7      2738212.4      233772.15      14.444301    
     32600   16.3           5991.8887     -18284.503      24783.622      2733525.4      2739416.2      2734991.5      2735977.7      233772.15      14.444301    
     32800   16.4           5999.9856     -18287.684      24817.113      2732842.8      2743779.5      2731999.8      2736207.3      233772.15      14.444301    
     33000   16.5           5980.2525     -18402.824      24735.493      2727682.7      2738973.9      2736734.6      2734463.8      233772.15      14.444301    
     33200   16.6           6002.9429     -18433.762      24829.345      2736623.9      2736770.5      2730254.4      2734549.6      233772.15      14.444301    
     33400   16.7           5965.3945     -18194.275      24674.037      2742679.3      2730492.6      2736841.9      2736671.2      233772.15      14.444301    
     33600   16.8           5953.2027     -18321.505      24623.61       2733647.3      2736486.9      2734450.1      2734861.4      233772.15      14.444301    
     33800   16.9           6016.1099     -18279.546      24883.806      2736452.1      2733872.6      2738749.3      2736358        233772.15      14.444301    
     34000   17             5966.5277     -18380.127      24678.724      2731559.5      2737416        2733771.4      2734249        233772.15      14.444301    
     34200   17.1           5986.9959     -18290.145      24763.385      2732855.9      2741807.5      2733322.7      2735995.4      233772.15      14.444301    
     34400   17.2           6003.0793     -18344.942      24829.909      2733097        2735852.4      2738574.6      2735841.3      233772.15      14.444301    
     34600   17.3           5957.3572     -18229.775      24640.793      2734728.7      2737882.8      2735882        2736164.5      233772.15      14.444301    
     34800   17.4           5951.8779     -18436.025      24618.13       2731054.2      2733332.7      2735386.6      2733257.8      233772.15      14.444301    
     35000   17.5           6001.626      -18327.583      24823.898      2732589.1      2744692.5      2730541.7      2735941.1      233772.15      14.444301    
     35200   17.6           6019.4846     -18517.513      24897.764      2728163        2740757.3      2732296.7      2733739        233772.15      14.444301    
     35400   17.7           5928.1013     -18247.82       24519.785      2736319.2      2735547.7      2734707.3      2735524.7      233772.15      14.444301    
     35600   17.8           5985.3547     -18533.625      24756.596      2729122.4      2737192.6      2732423.8      2732912.9      233772.15      14.444301    
     35800   17.9           5958.31       -18331.034      24644.734      2739240.5      2732040.6      2734056.4      2735112.5      233772.15      14.444301    
     36000   18             5979.6332     -18487.004      24732.931      2731790.9      2733790.6      2733547.9      2733043.1      233772.15      14.444301    
     36200   18.1           5976.9562     -18325.173      24721.859      2733291.5      2736581.2      2736132        2735334.9      233772.15      14.444301    
     36400   18.2           6025.9988     -18320.005      24924.709      2741464.4      2734700        2732711        2736291.8      233772.15      14.444301    
     36600   18.3           6053.2509     -18422.912      25037.428      2733068.4      2734911.6      2739506        2735828.6      233772.15      14.444301    
     36800   18.4           5995.8736     -18225.999      24800.104      2735222.8      2735572        2740396.2      2737063.7      233772.15      14.444301    
     37000   18.5           6044.549      -18175.366      25001.436      2741259.7      2742498        2731851.5      2738536.4      233772.15      14.444301    
     37200   18.6           6015.3239     -18173.424      24880.555      2736613.3      2737296.4      2741275.2      2738395        233772.15      14.444301    
     37400   18.7           6005.0528     -18143.574      24838.071      2737413.5      2735879.8      2740678.6      2737990.6      233772.15      14.444301    
     37600   18.8           6015.2928     -18333.702      24880.426      2743825.8      2731475.8      2733001        2736100.8      233772.15      14.444301    
     37800   18.9           6018.7992     -18503.415      24894.93       2733712.2      2731155.1      2736917.8      2733928.4      233772.15      14.444301    
     38000   19             5995.0028     -18243.235      24796.503      2735891.5      2728358.8      2745599.8      2736616.7      233772.15      14.444301    
     38200   19.1           6020.099      -18271.574      24900.306      2736508.7      2734884.7      2739311.7      2736901.7      233772.15      14.444301    
     38400   19.2           6007.0637     -18376.708      24846.389      2733790.8      2736474.1      2735646.4      2735303.7      233772.15      14.444301    
     38600   19.3           6043.3883     -18325.798      24996.635      2737759.4      2734779.9      2737872.1      2736803.8      233772.15      14.444301    
     38800   19.4           5990.7294     -18166.542      24778.827      2737012.6      2737944        2737816.9      2737591.2      233772.15      14.444301    
     39000   19.5           6029.6961     -18439.074      24940.001      2736858.1      2737242.1      2730967.5      2735022.6      233772.15      14.444301    
     39200   19.6           5985.7023     -18264.48       24758.034      2734324.3      2736562.2      2737600.8      2736162.4      233772.15      14.444301    
     39400   19.7           6043.2452     -18281          24996.043      2735938.2      2741077.9      2733580.8      2736865.6      233772.15      14.444301    
     39600   19.8           6034.3249     -18255.271      24959.147      2735872.7      2738600.2      2738021.1      2737498        233772.15      14.444301    
     39800   19.9           6020.2072     -18105.758      24900.753      2744213.9      2737296.8      2736877.4      2739462.7      233772.15      14.444301    
     40000   20             5979.3327     -18164.827      24731.688      2741120        2738439.1      2732584.3      2737381.1      233772.15      14.444301    
     40200   20.1           5997.3431     -18453.33       24806.183      2734063.3      2731202.3      2736572.9      2733946.2      233772.15      14.444301    
     40400   20.2           6008.6223     -18546.676      24852.836      2729963.3      2734758.4      2735330.5      2733350.7      233772.15      14.444301    
     40600   20.3           5963.9122     -18501.835      24667.906      2733292.7      2729178.1      2736514.5      2732995.1      233772.15      14.444301    
     40800   20.4           5971.8228     -18588.12       24700.626      2736167.9      2728754.4      2732349.5      2732423.9      233772.15      14.444301    
     41000   20.5           6030.5533     -18620.702      24943.547      2735307.3      2734095.2      2728080.5      2732494.3      233772.15      14.444301    
     41200   20.6           6033.932      -18270.984      24957.522      2736134.9      2737704.2      2737574.3      2737137.8      233772.15      14.444301    
     41400   20.7           5990.9972     -18229.27       24779.935      2741290.1      2731335.8      2737472        2736699.3      233772.15      14.444301    
     41600   20.8           6039.2564     -18563.451      24979.544      2730900.3      2732046.9      2736856.1      2733267.8      233772.15      14.444301    
     41800   20.9           5959.0275     -18333.537      24647.702      2737124.7      2731664.2      2735712.9      2734834        233772.15      14.444301    
     42000   21             5968.7238     -18331.378      24687.808      2738294.7      2733667.6      2733124.3      2735028.9      233772.15      14.444301    
     42200   21.1           5993.3386     -18439.686      24789.62       2734162.1      2737458.4      2730786.6      2734135.7      233772.15      14.444301    
     42400   21.2           5981.7316     -18364.341      24741.611      2738192.8      2737338.6      2728490        2734673.8      233772.15      14.444301    
     42600   21.3           5992.7711     -18325.091      24787.272      2738070.3      2731988.3      2735423.6      2735160.7      233772.15      14.444301    
     42800   21.4           6012.6471     -18535.146      24869.483      2735862.8      2730672        2733260        2733264.9      233772.15      14.444301    
     43000   21.5           6013.4333     -18372.476      24872.735      2735604.3      2725958.2      2745404        2735655.5      233772.15      14.444301    
     43200   21.6           6015.9632     -18383.638      24883.199      2739134.8      2735188.1      2732103.4      2735475.4      233772.15      14.444301    
     43400   21.7           5987.5172     -18330.53       24765.541      2731871.9      2733503.5      2743068.4      2736147.9      233772.15      14.444301    
     43600   21.8           6034.571      -18486.965      24960.165      2730546.6      2733975.1      2739690.4      2734737.3      233772.15      14.444301    
     43800   21.9           6017.9968     -18248.456      24891.611      2728852.5      2734462.5      2748327.3      2737214.1      233772.15      14.444301    
     44000   22             6019.6373     -18476.098      24898.396      2729572.2      2734918.2      2739014.9      2734501.8      233772.15      14.444301    
     44200   22.1           5994.6033     -18404.07       24794.85       2729519.6      2737812        2736741.2      2734690.9      233772.15      14.444301    
     44400   22.2           5993.7678     -18414.069      24791.395      2729003.4      2731655.6      2742697.3      2734452.1      233772.15      14.444301    
     44600   22.3           5999.5217     -18307.72       24815.194      2728163.5      2737069.2      2743702.1      2736311.6      233772.15      14.444301    
     44800   22.4           6012.1656     -18353.211      24867.492      2734101.3      2737376        2736673.8      2736050.4      233772.15      14.444301    
     45000   22.5           6001.1902     -18313.612      24822.095      2739569.8      2733889.5      2734135.8      2735865        233772.15      14.444301    
     45200   22.6           6033.8422     -18289.374      24957.15       2733252.5      2733148.7      2744627.8      2737009.7      233772.15      14.444301    
     45400   22.7           6026.8346     -18258.451      24928.165      2741363.8      2732785.4      2738372.9      2737507.4      233772.15      14.444301    
     45600   22.8           6000.7216     -18396.221      24820.157      2728964.3      2734596.6      2739715.6      2734425.5      233772.15      14.444301    
     45800   22.9           5983.5703     -18251.908      24749.216      2739833.3      2735982.5      2733353.9      2736389.9      233772.15      14.444301    
     46000   23             5990.2792     -18310.174      24776.965      2738262.7      2733433.9      2734973.9      2735556.8      233772.15      14.444301    
     46200   23.1           6008.4968     -18355.751      24852.317      2734995.1      2731927.2      2740351.1      2735757.8      233772.15      14.444301    
     46400   23.2           5962.5935     -18272.742      24662.452      2735304.5      2732669.3      2738534.9      2735502.9      233772.15      14.444301    
     46600   23.3           6018.1358     -18432.761      24892.185      2732063.6      2737807.8      2733188.5      2734353.3      233772.15      14.444301    
     46800   23.4           5988.2018     -18316.805      24768.373      2734275.1      2735164.6      2737235.3      2735558.3      233772.15      14.444301    
     47000   23.5           6028.3153     -18400.048      24934.29       2735652        2741303.5      2729939.3      2735631.6      233772.15      14.444301    
     47200   23.6           5962.1353     -18066.257      24660.556      2736288.7      2740983.9      2737150        2738140.9      233772.15      14.444301    
     47400   23.7           5973.3301     -18352.594      24706.86       2735035.8      2732911.4      2736045        2734664.1      233772.15      14.444301    
     47600   23.8           6000.3377     -18304.388      24818.569      2729853.4      2741104.1      2738177.3      2736378.3      233772.15      14.444301    
     47800   23.9           5994.9737     -18372.227      24796.383      2729416.3      2738824        2737050.9      2735097.1      233772.15      14.444301    
     48000   24             5975.8866     -18351.575      24717.434      2733321.8      2732752.5      2737890.3      2734654.9      233772.15      14.444301    
     48200   24.1           6023.7338     -18387.94       24915.34       2731511.2      2742635.5      2732527.7      2735558.1      233772.15      14.444301    
     48400   24.2           5964.3666     -18276.696      24669.786      2737511.4      2732286.4      2737140.5      2735646.1      233772.15      14.444301    
     48600   24.3           5983.1666     -18218.727      24747.546      2736079.8      2735337.4      2739431.5      2736949.6      233772.15      14.444301    
     48800   24.4           5999.1201     -18173.573      24813.533      2736808        2744467.4      2731219.5      2737498.3      233772.15      14.444301    
     49000   24.5           6013.9306     -18237.214      24874.792      2733959.3      2739557.5      2738709.8      2737408.9      233772.15      14.444301    
     49200   24.6           6061.964      -18300.107      25073.467      2729798.5      2742861.6      2738415.7      2737025.3      233772.15      14.444301    
     49400   24.7           6058.9125     -18339.239      25060.846      2735179.3      2740742.7      2734467.3      2736796.4      233772.15      14.444301    
     49600   24.8           6041.3118     -18149.178      24988.046      2739519.5      2735734.9      2741252.3      2738835.6      233772.15      14.444301    
     49800   24.9           6010.0071     -18238.645      24858.564      2736455        2737727.7      2735161.4      2736448        233772.15      14.444301    
     50000   25             5959.8644     -18315.17       24651.164      2732155        2733057.1      2739850.5      2735020.9      233772.15      14.444301    
Loop time of 75.5916 on 1 procs for 50000 steps with 32000 atoms

Performance: 28.575 ns/day, 0.840 hours/ns, 661.449 timesteps/s, 21.166 Matom-step/s
99.5% CPU use with 1 MPI tasks x 1 OpenMP threads

MPI task timing breakdown:
Section |  min time  |  avg time  |  max time  |%varavg| %total
---------------------------------------------------------------
Pair    | 42.492     | 42.492     | 42.492     |   0.0 | 56.21
Neigh   | 0.43296    | 0.43296    | 0.43296    |   0.0 |  0.57
Comm    | 28.293     | 28.293     | 28.293     |   0.0 | 37.43
Output  | 0.11759    | 0.11759    | 0.11759    |   0.0 |  0.16
Modify  | 2.2212     | 2.2212     | 2.2212     |   0.0 |  2.94
Other   |            | 2.035      |            |       |  2.69

Nlocal:          32000 ave       32000 max       32000 min
Histogram: 1 0 0 0 0 0 0 0 0 0
Nghost:          31260 ave       31260 max       31260 min
Histogram: 1 0 0 0 0 0 0 0 0 0
Neighs:    4.45603e+06 ave 4.45603e+06 max 4.45603e+06 min
Histogram: 1 0 0 0 0 0 0 0 0 0

Total # of neighbors = 4456028
Ave neighs/atom = 139.25088
Neighbor list builds = 915
Dangerous builds = 0
Total wall time: 0:01:18
