LAMMPS (10 Sep 2025)
KOKKOS mode with Kokkos version 4.6.2 is enabled
  using double precision
  using view layout = legacy
  will use up to 1 GPU(s) per node
  using 1 OpenMP thread(s) per MPI task
package kokkos
package kokkos newton on neigh half comm device
dimension       3
units           metal
atom_style      atomic
boundary        p p p

# --- Create FCC Cu lattice ---
#lattice         fcc 3.52
#region          box block 0 20 0 20 0 20
#create_box      1 box
#create_atoms    1 box
#mass            1 63.546

read_data       ../../../eos/0.68V/Cu-0.68V.lmp
Reading data file ...
  orthogonal box = (4.2463168 4.2463168 4.2463168) to (66.153683 66.153683 66.153683)
  1 by 1 by 1 MPI processor grid
  reading atoms ...
  32000 atoms
  reading velocities ...
  32000 velocities
  read_data CPU = 0.151 seconds
#change_box     all x scale _scale_ y scale _scale_ z scale _scale_ remap

neighbor        2.0 bin
neigh_modify    delay 0 every 1 check yes

pair_style      eam/alloy
pair_coeff      * * Cu-EAM-Z1622old.eam.alloy Cu

shell           "mkdir -p dumps"

variable	thold equal 6000
variable	itemp equal 2*6000
variable	runNVE equal 50000
variable	tstep equal 0.0005
variable	ph string 6000K-0.68V

timestep        ${tstep}
timestep        0.0005
thermo          200
thermo_style    custom step time temp pe ke pxx pyy pzz press vol density
#thermo_modify	norm yes

dump        	RDUMP all custom 20000 dumps/${ph}-NV-6000K-*.xyz id type x y z
dump        	RDUMP all custom 20000 dumps/6000K-0.68V-NV-6000K-*.xyz id type x y z

#NV  6000K calculation
velocity 		all create ${itemp}  23796
velocity 		all create 12000  23796

fix 			LANG all langevin ${thold} ${thold} $(300.0*dt) 33948
fix 			LANG all langevin 6000 ${thold} $(300.0*dt) 33948
fix 			LANG all langevin 6000 6000 $(300.0*dt) 33948
fix 			LANG all langevin 6000 6000 0.14999999999999999445 33948
fix 			NVE all nve
run  			${runNVE}
run  			50000
Neighbor list info ...
  update: every = 1 steps, delay = 0 steps, check = yes
  max neighbors/atom: 2000, page size: 100000
  master list distance cutoff = 7.859375
  ghost atom cutoff = 7.859375
  binsize = 7.859375, bins = 8 8 8
  1 neighbor lists, perpetual/occasional/extra = 1 0 0
  (1) pair eam/alloy/kk, perpetual
      attributes: half, newton on, kokkos_device
      pair build: half/bin/newton/kk/device
      stencil: half/bin/3d
      bin: kk/device
Per MPI rank memory allocation (min/avg/max) = 12.95 | 12.95 | 12.95 Mbytes
   Step          Time           Temp          PotEng         KinEng          Pxx            Pyy            Pzz           Press          Volume        Density    
         0   0              12000         -58000.952      49634.345      2196738.4      2195419.5      2195468.7      2195875.5      237261.34      14.231882    
       200   0.1            5788.4456     -31991.937      23942.142      2462565.9      2470243.6      2464673.6      2465827.7      237261.34      14.231882    
       400   0.2            5888.7241     -31760.399      24356.914      2468038.2      2470556.6      2472371.8      2470322.2      237261.34      14.231882    
       600   0.3            5965.5113     -31640.831      24674.52       2468909.4      2474976.2      2476769.7      2473551.8      237261.34      14.231882    
       800   0.4            5979.5959     -31623.047      24732.777      2469319        2474816.1      2477893.6      2474009.6      237261.34      14.231882    
      1000   0.5            5994.7814     -31502.669      24795.587      2472657        2480573.8      2474881.6      2476037.5      237261.34      14.231882    
      1200   0.6            5969.4807     -31008.456      24690.939      2482310.1      2482236.4      2480501.6      2481682.7      237261.34      14.231882    
      1400   0.7            5942.734      -31127.578      24580.309      2479240.7      2480454.3      2479291.1      2479662        237261.34      14.231882    
      1600   0.8            5982.9275     -31242.739      24746.557      2480476        2478358.6      2478814.7      2479216.4      237261.34      14.231882    
      1800   0.9            5972.8113     -31270.603      24704.715      2474882.3      2478887.6      2481218.9      2478329.6      237261.34      14.231882    
      2000   1              5951.7933     -30953.46       24617.78       2482174.8      2482717.6      2481614.1      2482168.8      237261.34      14.231882    
      2200   1.1            5988.9732     -30868.679      24771.563      2482678        2482309.9      2486422.9      2483803.6      237261.34      14.231882    
      2400   1.2            5982.3345     -30763.954      24744.104      2483863.5      2487577.4      2484297.9      2485246.2      237261.34      14.231882    
      2600   1.3            5969.9654     -30696.682      24692.943      2483102.1      2489625.7      2485239.3      2485989        237261.34      14.231882    
      2800   1.4            5954.6722     -30401.801      24629.687      2492867        2488882.6      2485892.6      2489214        237261.34      14.231882    
      3000   1.5            6000.5906     -30746.715      24819.615      2486854.2      2486955.1      2483653.1      2485820.8      237261.34      14.231882    
      3200   1.6            6008.2098     -30601.075      24851.129      2488238.6      2487939.7      2487042.2      2487740.2      237261.34      14.231882    
      3400   1.7            6000.5617     -30326.802      24819.496      2494187.9      2492258.5      2486952.2      2491132.9      237261.34      14.231882    
      3600   1.8            5956.9661     -29987.305      24639.176      2495434.9      2488859.5      2499583.4      2494625.9      237261.34      14.231882    
      3800   1.9            5996.5773     -30000.297      24803.015      2493080.1      2493216.1      2498357.2      2494884.5      237261.34      14.231882    
      4000   2              5945.0238     -29810.962      24589.78       2498901.7      2494291.3      2496799.1      2496664        237261.34      14.231882    
      4200   2.1            5908.4881     -29694.774      24438.661      2498264.9      2498874.4      2494625.1      2497254.8      237261.34      14.231882    
      4400   2.2            5923.4377     -29638.508      24500.496      2501535.5      2494259.7      2498699.8      2498165        237261.34      14.231882    
      4600   2.3            5940.7146     -29392.564      24571.956      2504531.5      2503279.6      2496963.1      2501591.4      237261.34      14.231882    
      4800   2.4            5929.781      -29079.412      24526.733      2505609.1      2509595.8      2500394.8      2505199.9      237261.34      14.231882    
      5000   2.5            5950.8186     -28936.718      24613.748      2506701.8      2506520.3      2508876.4      2507366.2      237261.34      14.231882    
      5200   2.6            5967.5557     -28575.956      24682.976      2515241.4      2511044.2      2511412.3      2512566        237261.34      14.231882    
      5400   2.7            5925.2296     -28281.948      24507.907      2512947.5      2515974.1      2516375.9      2515099.2      237261.34      14.231882    
      5600   2.8            5930.2197     -27965.5        24528.547      2512801.9      2518449.4      2525383.7      2518878.3      237261.34      14.231882    
      5800   2.9            5922.1503     -27475.797      24495.171      2518078.1      2528841.3      2528513.4      2525144.3      237261.34      14.231882    
      6000   3              5912.5249     -27101.952      24455.358      2529115        2528321.5      2530740.1      2529392.2      237261.34      14.231882    
      6200   3.1            5881.7273     -26577.801      24327.973      2539032.2      2532710.8      2535175.7      2535639.6      237261.34      14.231882    
      6400   3.2            5938.2844     -26270.372      24561.905      2538308.3      2540397.9      2542151.9      2540286        237261.34      14.231882    
      6600   3.3            5963.2656     -25936.88       24665.232      2543389.9      2542970.2      2547185.9      2544515.3      237261.34      14.231882    
      6800   3.4            5936.8238     -25450.38       24555.863      2550250.2      2552734.8      2548379.2      2550454.8      237261.34      14.231882    
      7000   3.5            5955.7126     -25210.406      24633.991      2553202        2555513.4      2552402.7      2553706        237261.34      14.231882    
      7200   3.6            5957.687      -24863.066      24642.158      2558342.6      2551386.4      2563999.9      2557909.6      237261.34      14.231882    
      7400   3.7            5922.8726     -24551.386      24498.158      2561819.7      2559630.1      2561615.8      2561021.9      237261.34      14.231882    
      7600   3.8            5916.7991     -24337.255      24473.037      2566322.7      2563150.8      2563832.7      2564435.4      237261.34      14.231882    
      7800   3.9            5983.9295     -23921.212      24750.702      2567811.8      2578084.4      2565904.1      2570600.1      237261.34      14.231882    
      8000   4              5953.3562     -23693.06       24624.244      2574381.6      2571237        2572016.2      2572545        237261.34      14.231882    
      8200   4.1            5943.8477     -23526.141      24584.915      2578847.7      2568276.5      2576646        2574590.1      237261.34      14.231882    
      8400   4.2            5984.3241     -23525.286      24752.334      2571011.7      2577040.7      2577781.7      2575278        237261.34      14.231882    
      8600   4.3            6009.778      -23315.42       24857.616      2582800.7      2575871.6      2577213.3      2578628.6      237261.34      14.231882    
      8800   4.4            6033.4939     -23135.82       24955.71       2587222.2      2574655.3      2580980.4      2580952.6      237261.34      14.231882    
      9000   4.5            6023.4027     -23111.891      24913.97       2582289.4      2580772.2      2580114.8      2581058.8      237261.34      14.231882    
      9200   4.6            6018.1269     -22897.958      24892.149      2585284.1      2582145.1      2584324.1      2583917.8      237261.34      14.231882    
      9400   4.7            6027.3924     -23088.039      24930.473      2580098.2      2585349.7      2578340.3      2581262.7      237261.34      14.231882    
      9600   4.8            5996.7685     -23038.326      24803.806      2581155.6      2580439.3      2582784.1      2581459.7      237261.34      14.231882    
      9800   4.9            6014.8912     -23110.716      24878.765      2581236.7      2583134.3      2579016.5      2581129.2      237261.34      14.231882    
     10000   5              6002.7064     -23118.982      24828.367      2584722.6      2579295.8      2579001.6      2581006.7      237261.34      14.231882    
     10200   5.1            5999.2169     -23229.327      24813.933      2581226.9      2581505.6      2574821.1      2579184.5      237261.34      14.231882    
     10400   5.2            5998.7185     -23391.484      24811.872      2569245.8      2581281.2      2580782.5      2577103.2      237261.34      14.231882    
     10600   5.3            5989.3444     -23373.489      24773.099      2575147.5      2577463.4      2579067.6      2577226.2      237261.34      14.231882    
     10800   5.4            5986.8066     -23130.885      24762.602      2579115.7      2578368.1      2582995.7      2580159.9      237261.34      14.231882    
     11000   5.5            6021.4553     -23349.146      24905.915      2581722.1      2570354.2      2581857.6      2577978        237261.34      14.231882    
     11200   5.6            5967.6648     -23244.569      24683.428      2581164.4      2577050.1      2575906.5      2578040.4      237261.34      14.231882    
     11400   5.7            5997.8102     -23191.8        24808.115      2577182.5      2578948.3      2582203.3      2579444.7      237261.34      14.231882    
     11600   5.8            5989.7236     -23217.905      24774.667      2581710.1      2578119.3      2577097.1      2578975.5      237261.34      14.231882    
     11800   5.9            5994.8519     -23018.181      24795.879      2575216.2      2588991.3      2580376.5      2581528        237261.34      14.231882    
     12000   6              5991.2049     -23002.368      24780.794      2583398.4      2583241.2      2578414.3      2581684.6      237261.34      14.231882    
     12200   6.1            6012.6432     -22933.441      24869.467      2582569.7      2576554.5      2591442.5      2583522.3      237261.34      14.231882    
     12400   6.2            6008.5226     -22918.558      24852.423      2577106.1      2586578.6      2586996.2      2583560.3      237261.34      14.231882    
     12600   6.3            5983.3094     -22972.313      24748.137      2587834.8      2574357.7      2584914.9      2582369.2      237261.34      14.231882    
     12800   6.4            6022.0257     -23317.289      24908.275      2583292        2575457.3      2576257.9      2578335.7      237261.34      14.231882    
     13000   6.5            5948.9444     -22985.917      24605.996      2581625.2      2583891.6      2578798        2581438.3      237261.34      14.231882    
     13200   6.6            5997.0748     -23130.486      24805.073      2581272.8      2578726        2581564.2      2580521        237261.34      14.231882    
     13400   6.7            5973.6762     -23117.028      24708.292      2575292.6      2584632.6      2580529.9      2580151.7      237261.34      14.231882    
     13600   6.8            5959.7397     -23213.727      24650.648      2579149.9      2578878.4      2577064        2578364.1      237261.34      14.231882    
     13800   6.9            5988.0325     -22998.803      24767.672      2581178.8      2578004        2586016.4      2581733.1      237261.34      14.231882    
     14000   7              6034.9369     -23118.469      24961.678      2577205.4      2584973.5      2581801.8      2581326.9      237261.34      14.231882    
     14200   7.1            6044.4546     -22856.911      25001.045      2577842.1      2592889.4      2583405.5      2584712.3      237261.34      14.231882    
     14400   7.2            6019.2119     -22903.736      24896.636      2586575        2579134        2585367.4      2583692.1      237261.34      14.231882    
     14600   7.3            6011.3443     -23075.683      24864.094      2578151        2580521.2      2584794.2      2581155.4      237261.34      14.231882    
     14800   7.4            5999.9857     -22996.672      24817.113      2580136.6      2584480.5      2582296.2      2582304.4      237261.34      14.231882    
     15000   7.5            5996.4958     -23189.759      24802.678      2579060.9      2579352.1      2580781.2      2579731.4      237261.34      14.231882    
     15200   7.6            5962.9958     -23273.686      24664.116      2570968        2585154.8      2577247        2577789.9      237261.34      14.231882    
     15400   7.7            6010.8208     -22935.66       24861.929      2581103.3      2588102        2579677.6      2582961        237261.34      14.231882    
     15600   7.8            6020.8196     -22951.136      24903.286      2580929.3      2583092.9      2584424.1      2582815.4      237261.34      14.231882    
     15800   7.9            6008.4948     -22960.786      24852.309      2584330.8      2579888.5      2584110.4      2582776.6      237261.34      14.231882    
     16000   8              6005.3748     -23128.84       24839.403      2583427.8      2580087.5      2578057.8      2580524.4      237261.34      14.231882    
     16200   8.1            6011.7875     -23162.966      24865.928      2576952.7      2578496.8      2585851.3      2580433.6      237261.34      14.231882    
     16400   8.2            6023.0832     -23049.856      24912.649      2574814.5      2584337.6      2586002.4      2581718.2      237261.34      14.231882    
     16600   8.3            5976.1719     -23066.884      24718.615      2584743.6      2580071.4      2578784.4      2581199.8      237261.34      14.231882    
     16800   8.4            6035.2975     -23130.443      24963.17       2580890        2581471.9      2579820        2580727.3      237261.34      14.231882    
     17000   8.5            5998.376      -23121.244      24810.455      2581712.5      2577152.1      2581939.6      2580268.1      237261.34      14.231882    
     17200   8.6            6000.9374     -23038.628      24821.049      2578917.8      2575884.8      2590028.1      2581610.2      237261.34      14.231882    
     17400   8.7            5964.8619     -23157.175      24671.834      2582207.4      2582566.2      2573229.3      2579334.3      237261.34      14.231882    
     17600   8.8            6011.5136     -23152.757      24864.795      2583372.9      2576086.6      2581127.2      2580195.5      237261.34      14.231882    
     17800   8.9            6004.8841     -23051.449      24837.374      2579298.4      2581941.9      2584359.8      2581866.7      237261.34      14.231882    
     18000   9              5994.6393     -23108.545      24794.999      2582987.9      2575394.4      2583254.9      2580545.7      237261.34      14.231882    
     18200   9.1            5997.9056     -23091.374      24808.509      2578471.3      2584669.6      2579457.1      2580866        237261.34      14.231882    
     18400   9.2            5972.4689     -23154.183      24703.298      2579885.6      2577796.7      2582651.4      2580111.2      237261.34      14.231882    
     18600   9.3            5987.6326     -23227.287      24766.018      2577070.5      2577643.5      2581733.5      2578815.8      237261.34      14.231882    
     18800   9.4            6017.3427     -23160.139      24888.905      2581587.9      2583377.7      2575342.3      2580102.6      237261.34      14.231882    
     19000   9.5            5971.0989     -23002.741      24697.632      2578464.9      2581182.6      2585547.2      2581731.6      237261.34      14.231882    
     19200   9.6            6024.2487     -22989.019      24917.47       2581262        2586307.4      2580373        2582647.5      237261.34      14.231882    
     19400   9.7            6032.0556     -23050.465      24949.761      2584194.2      2579995.2      2582063.1      2582084.1      237261.34      14.231882    
     19600   9.8            5982.3096     -23101.278      24744.002      2580189.4      2578067.2      2582901.5      2580386        237261.34      14.231882    
     19800   9.9            5976.2488     -22972.67       24718.933      2586241.9      2583380.6      2575773.8      2581798.8      237261.34      14.231882    
     20000   10             6013.7538     -22978.437      24874.061      2585024.5      2585997        2576976.4      2582665.9      237261.34      14.231882    
     20200   10.1           5970.9625     -22882.659      24697.068      2578299.3      2586480.5      2584468.1      2583082.6      237261.34      14.231882    
     20400   10.2           5965.5294     -23069.079      24674.595      2580329.9      2582218.2      2578710.7      2580419.6      237261.34      14.231882    
     20600   10.3           6007.3026     -23079.16       24847.377      2584948.5      2580444.4      2578264.6      2581219.2      237261.34      14.231882    
     20800   10.4           6001.5534     -23049.75       24823.597      2579860.3      2578608.6      2585121.4      2581196.8      237261.34      14.231882    
     21000   10.5           6014.5254     -23189.577      24877.252      2582634.9      2576684.4      2580022.1      2579780.5      237261.34      14.231882    
     21200   10.6           6060.5444     -23065.811      25067.596      2579897.7      2581696.4      2584881.3      2582158.5      237261.34      14.231882    
     21400   10.7           5983.382      -23042.98       24748.437      2585036.1      2581604.4      2576760        2581133.5      237261.34      14.231882    
     21600   10.8           5970.3255     -23054.325      24694.433      2579649.4      2582039.1      2581386.5      2581025        237261.34      14.231882    
     21800   10.9           5985.2645     -23102.743      24756.224      2578031.4      2586249.1      2578476.9      2580919.1      237261.34      14.231882    
     22000   11             5996.2591     -23068.1        24801.699      2581707.9      2581672.4      2580193.7      2581191.3      237261.34      14.231882    
     22200   11.1           5982.2498     -23235.073      24743.754      2579603.6      2575325.5      2580674.8      2578534.6      237261.34      14.231882    
     22400   11.2           5980.9458     -23351.01       24738.36       2574429.6      2580903.3      2575696.1      2577009.6      237261.34      14.231882    
     22600   11.3           5973.2454     -23222.586      24706.51       2581540.8      2582560.3      2572298.9      2578800        237261.34      14.231882    
     22800   11.4           5983.4412     -23091.094      24748.682      2575060.7      2583084.1      2584239.5      2580794.8      237261.34      14.231882    
     23000   11.5           5992.97       -23021.056      24788.095      2576201.6      2584916.3      2583956.1      2581691.3      237261.34      14.231882    
     23200   11.6           6029.4021     -23187.664      24938.785      2583040        2576826.8      2580941        2580269.3      237261.34      14.231882    
     23400   11.7           6019.1795     -23201.453      24896.503      2575085.3      2583045.4      2582365.8      2580165.5      237261.34      14.231882    
     23600   11.8           6048.5738     -23111.85       25018.083      2584441        2579414.7      2580149.9      2581335.2      237261.34      14.231882    
     23800   11.9           5998.9468     -23155.316      24812.816      2583684.7      2576741.5      2579544.4      2579990.2      237261.34      14.231882    
     24000   12             5991.1652     -23157.083      24780.63       2586545.2      2581222.3      2573149.7      2580305.7      237261.34      14.231882    
     24200   12.1           5967.9733     -23095.579      24684.704      2582255.2      2576287        2582670.3      2580404.2      237261.34      14.231882    
     24400   12.2           5965.2455     -23117.391      24673.421      2583738.6      2579602.5      2576019.9      2579787        237261.34      14.231882    
     24600   12.3           5996.7391     -22948.492      24803.685      2579815.3      2582229.6      2585112.5      2582385.8      237261.34      14.231882    
     24800   12.4           5996.0004     -23133.774      24800.629      2580617.8      2579674.2      2581690.2      2580660.8      237261.34      14.231882    
     25000   12.5           6017.6177     -22909.099      24890.042      2580753.7      2588018.6      2581294.6      2583355.6      237261.34      14.231882    
     25200   12.6           6075.0851     -22921.695      25127.739      2586878.7      2585328.6      2581420.7      2584542.7      237261.34      14.231882    
     25400   12.7           6028.4861     -23008.351      24934.996      2584798        2584033.5      2578976.3      2582602.6      237261.34      14.231882    
     25600   12.8           6029.6811     -23220.817      24939.939      2575176.2      2579654.7      2584602.5      2579811.1      237261.34      14.231882    
     25800   12.9           5997.5479     -23102.565      24807.03       2580486.8      2577904.9      2583915.7      2580769.1      237261.34      14.231882    
     26000   13             5957.6782     -22956.332      24642.121      2579042.4      2579814.1      2585369.3      2581408.6      237261.34      14.231882    
     26200   13.1           6000.2524     -22982.66       24818.216      2589006.6      2579502.4      2578663.6      2582390.9      237261.34      14.231882    
     26400   13.2           6019.2388     -23177.357      24896.748      2578435.7      2580969.6      2581184.3      2580196.5      237261.34      14.231882    
     26600   13.3           6006.837      -23118.227      24845.451      2582190.8      2580830        2579004.5      2580675.1      237261.34      14.231882    
     26800   13.4           6022.6168     -23114.71       24910.72       2582163        2582348        2579549.4      2581353.5      237261.34      14.231882    
     27000   13.5           6028.5066     -23073.395      24935.081      2583566.6      2582813.9      2577854.7      2581411.7      237261.34      14.231882    
     27200   13.6           5984.6921     -23057.972      24753.856      2582161        2584988.1      2576646.4      2581265.2      237261.34      14.231882    
     27400   13.7           6028.378      -22979.835      24934.549      2584539.4      2582633.2      2581413.8      2582862.1      237261.34      14.231882    
     27600   13.8           5993.2558     -23289.02       24789.277      2583089.5      2573445.6      2578728.8      2578421.3      237261.34      14.231882    
     27800   13.9           6002.3112     -23147.094      24826.732      2582655.5      2578523.8      2578807.9      2579995.7      237261.34      14.231882    
     28000   14             5971.0957     -23175.486      24697.618      2578527.8      2571256.7      2588047.3      2579277.2      237261.34      14.231882    
     28200   14.1           5962.0088     -23023.509      24660.033      2582652.1      2579126        2581858.1      2581212.1      237261.34      14.231882    
     28400   14.2           5985.6665     -23138.699      24757.886      2581732.1      2578388.9      2580506.8      2580209.3      237261.34      14.231882    
     28600   14.3           6004.4661     -23048.343      24835.645      2581359.7      2578892.4      2583720.7      2581324.3      237261.34      14.231882    
     28800   14.4           5982.5819     -23056.116      24745.128      2580522.6      2577718.3      2585240.8      2581160.6      237261.34      14.231882    
     29000   14.5           5998.4737     -23164.15       24810.859      2578347.1      2576788.4      2584787.7      2579974.4      237261.34      14.231882    
     29200   14.6           5995.9565     -23070.056      24800.448      2581877.3      2578147.5      2583747.4      2581257.4      237261.34      14.231882    
     29400   14.7           6032.8198     -23277.619      24952.921      2578546.3      2580354.2      2578378.1      2579092.8      237261.34      14.231882    
     29600   14.8           5986.6985     -23063.163      24762.155      2582201.9      2577874.3      2584119.6      2581398.6      237261.34      14.231882    
     29800   14.9           5997.3486     -23433.406      24806.206      2573512.9      2576662.3      2579948        2576707.7      237261.34      14.231882    
     30000   15             5964.9974     -23311.337      24672.395      2575086        2572497.8      2584667.2      2577417        237261.34      14.231882    
     30200   15.1           6020.9891     -23194.279      24903.987      2582553.3      2578872.3      2579620        2580348.6      237261.34      14.231882    
     30400   15.2           5946.8304     -23113.055      24597.252      2579965.7      2581324.8      2577806.7      2579699.1      237261.34      14.231882    
     30600   15.3           5973.8462     -23171.249      24708.995      2580326.7      2579422.8      2578471.3      2579406.9      237261.34      14.231882    
     30800   15.4           6012.4158     -23214.676      24868.527      2580475.7      2577111.2      2580595.4      2579394.1      237261.34      14.231882    
     31000   15.5           5991.9977     -23186.218      24784.073      2580266.5      2579283.1      2579022        2579523.8      237261.34      14.231882    
     31200   15.6           6015.9337     -23145.204      24883.077      2580067        2581589.4      2579621        2580425.8      237261.34      14.231882    
     31400   15.7           6004.344      -22882.81       24835.14       2580343.8      2588095.3      2581872.5      2583437.2      237261.34      14.231882    
     31600   15.8           5972.93       -22981.473      24705.205      2583907.5      2585113.5      2575898        2581639.7      237261.34      14.231882    
     31800   15.9           6032.5926     -23096.802      24951.982      2587805        2576645.3      2578842.9      2581097.7      237261.34      14.231882    
     32000   16             6010.9588     -23179.42       24862.5        2577652.9      2584052.7      2578548.2      2580084.6      237261.34      14.231882    
     32200   16.1           6018.9628     -23042.896      24895.606      2581837        2584153.6      2578865.2      2581618.6      237261.34      14.231882    
     32400   16.2           5997.9772     -23207.571      24808.805      2577453.2      2579446.5      2581518.5      2579472.7      237261.34      14.231882    
     32600   16.3           6014.4772     -23355.698      24877.053      2576338.5      2579471.9      2577491.5      2577767.3      237261.34      14.231882    
     32800   16.4           6001.8765     -23108.087      24824.934      2580115.1      2578936.7      2582729.4      2580593.7      237261.34      14.231882    
     33000   16.5           5988.3712     -23206.993      24769.073      2580945.4      2578496.7      2579240.4      2579560.8      237261.34      14.231882    
     33200   16.6           6025.9634     -23258.535      24924.562      2576778.8      2587857        2572928.3      2579188        237261.34      14.231882    
     33400   16.7           5997.4098     -22986.009      24806.459      2588250.1      2580742.9      2577869.5      2582287.5      237261.34      14.231882    
     33600   16.8           6021.3179     -23009.102      24905.347      2575720.4      2586308.5      2585172        2582400.3      237261.34      14.231882    
     33800   16.9           6050.7959     -23034.607      25027.274      2581135.7      2580408.7      2585890.7      2582478.4      237261.34      14.231882    
     34000   17             5985.6128     -23176.637      24757.664      2578092.2      2582453.2      2578049.1      2579531.5      237261.34      14.231882    
     34200   17.1           5995.4704     -23228.105      24798.437      2574445.8      2587862.6      2575956.5      2579421.6      237261.34      14.231882    
     34400   17.2           6012.9885     -23193.649      24870.895      2576415.5      2581601.5      2581985.8      2580000.9      237261.34      14.231882    
     34600   17.3           5999.3472     -23088.578      24814.472      2585768.5      2578548.3      2578339.3      2580885.4      237261.34      14.231882    
     34800   17.4           6029.6725     -23103.115      24939.903      2579493.8      2585836.6      2578911.7      2581414        237261.34      14.231882    
     35000   17.5           5986.434      -22985.109      24761.061      2581089.1      2582308.5      2583017.2      2582138.3      237261.34      14.231882    
     35200   17.6           6022.5401     -23050.281      24910.402      2582052.5      2578019        2585309.4      2581793.7      237261.34      14.231882    
     35400   17.7           6018.7894     -23161.189      24894.889      2573156.6      2582573.1      2585129.9      2580286.5      237261.34      14.231882    
     35600   17.8           6004.7177     -22974.111      24836.686      2584573.4      2581809.3      2580660.7      2582347.8      237261.34      14.231882    
     35800   17.9           6004.8476     -23076.512      24837.223      2585444.6      2578789.8      2578785.2      2581006.6      237261.34      14.231882    
     36000   18             6019.8357     -23265.008      24899.217      2580923        2579321.5      2575897.6      2578714        237261.34      14.231882    
     36200   18.1           5987.7602     -23414.754      24766.546      2575434.8      2576851.8      2577849.9      2576712.2      237261.34      14.231882    
     36400   18.2           5938.5612     -23136.468      24563.049      2575795.5      2584316        2577982.3      2579364.6      237261.34      14.231882    
     36600   18.3           5984.2671     -23325.516      24752.098      2579776.2      2575769        2579511.7      2578352.3      237261.34      14.231882    
     36800   18.4           5931.5198     -23280.43       24533.925      2581731.7      2578828.2      2571314.4      2577291.4      237261.34      14.231882    
     37000   18.5           5997.8846     -23211.591      24808.423      2581031.9      2584795        2572752        2579526.3      237261.34      14.231882    
     37200   18.6           6039.9338     -23152.593      24982.346      2573270.6      2583945.3      2585989        2581068.3      237261.34      14.231882    
     37400   18.7           6014.3386     -23280.495      24876.48       2581584.5      2578076.5      2577110.8      2578923.9      237261.34      14.231882    
     37600   18.8           5985.4854     -23117.83       24757.137      2578902.9      2578744.9      2582864.6      2580170.8      237261.34      14.231882    
     37800   18.9           6007.4705     -23251.175      24848.072      2576730.7      2578780.1      2582073.3      2579194.7      237261.34      14.231882    
     38000   19             6018.9873     -23359.504      24895.707      2577497.5      2582122.1      2574332        2577983.9      237261.34      14.231882    
     38200   19.1           5984.6175     -23254.729      24753.547      2578871.6      2579690.5      2577278.4      2578613.5      237261.34      14.231882    
     38400   19.2           5966.3136     -23313.421      24677.839      2576700.5      2576897.8      2578825.9      2577474.7      237261.34      14.231882    
     38600   19.3           5963.3296     -23325.471      24665.496      2576444.7      2574427.4      2581482.6      2577451.6      237261.34      14.231882    
     38800   19.4           5968.0262     -23196.424      24684.922      2574190.7      2576984.6      2586929.8      2579368.4      237261.34      14.231882    
     39000   19.5           6025.7137     -23375.588      24923.529      2573001.7      2585584.1      2574805.9      2577797.3      237261.34      14.231882    
     39200   19.6           5969.7334     -23211.095      24691.984      2580059.5      2577384.6      2579486.1      2578976.7      237261.34      14.231882    
     39400   19.7           5974.0161     -23269.851      24709.698      2575438        2583100.6      2575187.9      2577908.8      237261.34      14.231882    
     39600   19.8           5962.4328     -23078.19       24661.787      2572400.2      2586678.7      2581920        2580333        237261.34      14.231882    
     39800   19.9           6012.9467     -23001.116      24870.722      2579496.8      2583921.5      2583839.9      2582419.4      237261.34      14.231882    
     40000   20             6011.5672     -23141.67       24865.017      2587308        2568670.7      2584933.1      2580304        237261.34      14.231882    
     40200   20.1           6003.9649     -23050.474      24833.572      2578048.9      2590392.4      2577601.5      2582014.3      237261.34      14.231882    
     40400   20.2           5980.7596     -23166.884      24737.59       2581399.2      2581084.5      2577156.9      2579880.2      237261.34      14.231882    
     40600   20.3           5979.8848     -23177.301      24733.972      2579707.3      2584965.7      2574434.3      2579702.4      237261.34      14.231882    
     40800   20.4           5957.2358     -22961.187      24640.291      2579616        2581808.1      2582947.1      2581457.1      237261.34      14.231882    
     41000   20.5           6007.0911     -23031.78       24846.503      2572164.6      2580968.4      2592668.3      2581933.8      237261.34      14.231882    
     41200   20.6           5987.1595     -23026.78       24764.061      2580691.5      2585110.1      2579185.9      2581662.5      237261.34      14.231882    
     41400   20.7           6014.1942     -23015.039      24875.882      2583782.9      2586209.6      2577145.1      2582379.2      237261.34      14.231882    
     41600   20.8           6079.346      -23107.201      25145.363      2577744.6      2585208.6      2583300.4      2582084.5      237261.34      14.231882    
     41800   20.9           6010.4374     -22981.757      24860.343      2584579.4      2575746.5      2586042.9      2582122.9      237261.34      14.231882    
     42000   21             6049.0917     -23213.862      25020.225      2585996.5      2575843.9      2579331.5      2580390.6      237261.34      14.231882    
     42200   21.1           5998.1629     -23215.807      24809.574      2582520.4      2575187.5      2580142        2579283.3      237261.34      14.231882    
     42400   21.2           5993.1568     -23282.611      24788.867      2578001        2581075.8      2576242.6      2578439.8      237261.34      14.231882    
     42600   21.3           5984.2023     -23202.184      24751.83       2576640.8      2582984.7      2577571.9      2579065.8      237261.34      14.231882    
     42800   21.4           5999.7804     -23317.002      24816.264      2580240.2      2577765.8      2576655.7      2578220.6      237261.34      14.231882    
     43000   21.5           6019.4563     -23295.159      24897.647      2572957.1      2583066.7      2579687.1      2578570.3      237261.34      14.231882    
     43200   21.6           6051.4715     -23276.044      25030.069      2575998.8      2580463.3      2582003.6      2579488.6      237261.34      14.231882    
     43400   21.7           5991.7143     -22995.474      24782.901      2582587.6      2580994.5      2582113.6      2581898.5      237261.34      14.231882    
     43600   21.8           5998.3915     -23038.007      24810.519      2576521.7      2586878.9      2580830.5      2581410.4      237261.34      14.231882    
     43800   21.9           6036.8763     -23128.153      24969.7        2582407.4      2582306.6      2579408        2581374        237261.34      14.231882    
     44000   22             5969.2786     -23122.521      24690.102      2577933.1      2581342.8      2581035.4      2580103.8      237261.34      14.231882    
     44200   22.1           5993.8542     -23003.594      24791.752      2578868.8      2583289.1      2584362.1      2582173.4      237261.34      14.231882    
     44400   22.2           5964.8064     -23066.159      24671.605      2581622.9      2581089.6      2578484.3      2580398.9      237261.34      14.231882    
     44600   22.3           6010.6126     -23031.93       24861.068      2581400.9      2582986.2      2582077.4      2582154.8      237261.34      14.231882    
     44800   22.4           6042.6816     -23248.953      24993.712      2576818.1      2578160.5      2583347        2579441.9      237261.34      14.231882    
     45000   22.5           5983.0265     -23036.241      24746.967      2579933.9      2582097.5      2582039.5      2581357        237261.34      14.231882    
     45200   22.6           5978.2749     -22875.274      24727.313      2588858.8      2574652        2584895.2      2582802        237261.34      14.231882    
     45400   22.7           6008.0248     -23276.454      24850.365      2582719.6      2570755.8      2582983.5      2578819.6      237261.34      14.231882    
     45600   22.8           5944.7245     -23148.671      24588.542      2582207.5      2580821.9      2574285.5      2579104.9      237261.34      14.231882    
     45800   22.9           6029.7045     -23050.883      24940.036      2582164        2581291.5      2582058.3      2581838        237261.34      14.231882    
     46000   23             6014.5704     -23073.107      24877.438      2579826.3      2581022.8      2582913        2581254        237261.34      14.231882    
     46200   23.1           5991.1579     -23033.491      24780.6        2582299.7      2582307.3      2580328.9      2581645.3      237261.34      14.231882    
     46400   23.2           5974.5486     -23158.751      24711.9        2579165.2      2575159        2585747.9      2580024        237261.34      14.231882    
     46600   23.3           5978.6646     -23226.713      24728.925      2574935.2      2581380.5      2580664        2578993.2      237261.34      14.231882    
     46800   23.4           5971.3375     -23121.088      24698.619      2585989.2      2573088.4      2581941.3      2580339.6      237261.34      14.231882    
     47000   23.5           5996.9685     -22965.395      24804.634      2584776.4      2581405.8      2580008.2      2582063.4      237261.34      14.231882    
     47200   23.6           5992.5781     -23024.727      24786.474      2583367.8      2581612.7      2579217.4      2581399.3      237261.34      14.231882    
     47400   23.7           5997.7589     -23029.152      24807.903      2577194.1      2579264.2      2588336.1      2581598.1      237261.34      14.231882    
     47600   23.8           5991.9876     -22930.073      24784.031      2581698.4      2577496.9      2589659.5      2582951.6      237261.34      14.231882    
     47800   23.9           5994.6256     -23241.853      24794.943      2578669.2      2573674.3      2584703.4      2579015.7      237261.34      14.231882    
     48000   24             5976.277      -23517.833      24719.049      2574726.5      2576594.7      2574048.1      2575123.1      237261.34      14.231882    
     48200   24.1           6000.4669     -23189.234      24819.104      2580231.5      2582651.3      2577346.6      2580076.5      237261.34      14.231882    
     48400   24.2           5979.55       -23020.591      24732.587      2584421        2579322.3      2581351.9      2581698.4      237261.34      14.231882    
     48600   24.3           5995.9452     -23139.898      24800.401      2576175.2      2581015.9      2583161.5      2580117.5      237261.34      14.231882    
     48800   24.4           6002.3505     -23133.238      24826.894      2582126.8      2580614.1      2577974.8      2580238.6      237261.34      14.231882    
     49000   24.5           5949.5764     -22957.584      24608.61       2578384.1      2583689.9      2582688.3      2581587.5      237261.34      14.231882    
     49200   24.6           6021.8539     -23174.299      24907.564      2581524.3      2580436.9      2578135.5      2580032.2      237261.34      14.231882    
     49400   24.7           6054.3906     -23050.644      25042.142      2583992.4      2580114.3      2582939.2      2582348.6      237261.34      14.231882    
     49600   24.8           5962.4877     -23008.959      24662.014      2578869.6      2581138.7      2582833.1      2580947.1      237261.34      14.231882    
     49800   24.9           5976.9255     -23095.774      24721.732      2579873.3      2576906.2      2584320.7      2580366.7      237261.34      14.231882    
     50000   25             5986.0786     -23228.915      24759.59       2581647.8      2568763.1      2586764.1      2579058.3      237261.34      14.231882    
Loop time of 74.391 on 1 procs for 50000 steps with 32000 atoms

Performance: 29.036 ns/day, 0.827 hours/ns, 672.124 timesteps/s, 21.508 Matom-step/s
99.4% CPU use with 1 MPI tasks x 1 OpenMP threads

MPI task timing breakdown:
Section |  min time  |  avg time  |  max time  |%varavg| %total
---------------------------------------------------------------
Pair    | 41.846     | 41.846     | 41.846     |   0.0 | 56.25
Neigh   | 0.43488    | 0.43488    | 0.43488    |   0.0 |  0.58
Comm    | 27.752     | 27.752     | 27.752     |   0.0 | 37.31
Output  | 0.11661    | 0.11661    | 0.11661    |   0.0 |  0.16
Modify  | 2.2149     | 2.2149     | 2.2149     |   0.0 |  2.98
Other   |            | 2.027      |            |       |  2.72

Nlocal:          32000 ave       32000 max       32000 min
Histogram: 1 0 0 0 0 0 0 0 0 0
Nghost:          31085 ave       31085 max       31085 min
Histogram: 1 0 0 0 0 0 0 0 0 0
Neighs:    4.38979e+06 ave 4.38979e+06 max 4.38979e+06 min
Histogram: 1 0 0 0 0 0 0 0 0 0

Total # of neighbors = 4389787
Ave neighs/atom = 137.18084
Neighbor list builds = 918
Dangerous builds = 0
Total wall time: 0:01:16
